
****************************************************************
****************************************************************
**                                                            **
**                                                            **
**        CCC     OO      SSS    M    M     OO      SSS       **
**       C       O  O    S       MM  MM    O  O    S          **
**       C       O  O     SS     M MM M    O  O     SS        **
**       C       O  O       S    M    M    O  O       S       **
**        CCC     OO     SSS     M    M     OO     SSS        **
**                                                            **
**                                                            **
**                Fatigue(FSTAR)                              **
**           Distributed By: SolidWorks Corporation           **
**               12121 Wilshire Blvd. Suite 700               **
**               Los Angeles, California  90025               **
**               Telephone Number (310)207-2800               **
**         Copyright 1988-2016 SolidWorks Corporation         **
**                                                            **
****************************************************************
****************************************************************

Licensed to:                



--------------------------------------------------------------------------
COSMOS                   FATIGUE MODULE              5/28/2024   17:30: 1
--------------------------------------------------------------------------


 Title :                                                                       





F A T I G U E   P R O P E R T I E S :


Load Amplitude Type . . . . . . . . . . . . . . . . =       0
       EQ. 0, Constant Amplitude
       EQ. 1, Variable Amplitude

Activated Location  . . . . . . . . . . . . . . . . =       0
       EQ. 0, Whole Model
       EQ. 1, Surface Only


Shell Surface . . . . . . . . . . . . . . . . . . . =       1
       EQ. 1, Top
       EQ. 2, Bottom


Shell Layer . . . . . . . . . . . . . . . . . . . . =       0


Event Interaction . . . . . . . . . . . . . . . . . =       0
       EQ. 0, Random
       EQ. 1, No interaction


Alternating Stress  . . . . . . . . . . . . . . . . =       0
       EQ. 0, Intensity
       EQ. 1, Von mises
       EQ. 2, Max. Principal


Mean Stress Correction  . . . . . . . . . . . . . . =       0
       EQ. 0, No Correction
       EQ. 1, Soderberg
       EQ. 2, Goodman
       EQ. 3, Gerber


Fatigue Strength Reduction Factor (Kt)  . . . . . . =  1.0000


Infinite Life . . . . . . . . . . . . . . . . . . . =       0
       EQ. 0, Not Defined
       EQ. 1, Defined




E V E N T   P A R A M E T E R S:

          No. of    Associated      Load Case(s)/      Scale
  Event   Cycles    Loading(s)      Time Step(s)       factor
  -----   ------    ----------       -----------       ------
    1  0.300E+04        1                1             1.00    
                        2                1            -1.00    
  
  




         S - N   C U R V E  #     1

(Material set #    1; Stress ratio:-1.00)
          (Log-Log interplolation)


  POINT No.   No. of Cycles     Alt. Stress
  ---------   -------------     -----------
     1         10.0             0.831E+08
     2         20.0             0.587E+08
     3         50.0             0.394E+08
     4         100.             0.294E+08
     5         200.             0.222E+08
     6         500.             0.150E+08
     7        0.100E+04         0.119E+08
     8        0.200E+04         0.916E+07
     9        0.500E+04         0.688E+07
    10        0.100E+05         0.544E+07
    11        0.200E+05         0.445E+07
    12        0.500E+05         0.330E+07
    13        0.100E+06         0.287E+07
    14        0.200E+06         0.237E+07
    15        0.500E+06         0.193E+07
    16        0.100E+07         0.179E+07



F A T I G U E   C A L C U L A T I O N   R E S U L T S:


              (all-nodes option)   

                        cumulative fatigue
        node                usage factor 
       ------           ------------------
          1               0.300000E-02
          2               0.300000E-02
          3               0.300000E-02
          4               0.300000E-02
          5               0.300000E-02
          6               0.300000E-02
          7               0.300000E-02
          8               0.300000E-02
          9               0.300000E-02
         10               0.300000E-02
         11               0.300000E-02
         12               0.300000E-02
         13               0.300000E-02
         14               0.316427E-02
         15               0.300000E-02
         16               0.300000E-02
         17               0.300000E-02
         18               0.300000E-02
         19               0.300000E-02
         20               0.300000E-02
         21               0.300000E-02
         22               0.300000E-02
         23               0.300000E-02
         24               0.300000E-02
         25               0.300000E-02
         26               0.300000E-02
         27               0.194116E-01
         28               0.300000E-02
         29               0.300000E-02
         30               0.300000E-02
         31               0.300000E-02
         32               0.300000E-02
         33               0.300000E-02
         34               0.300000E-02
         35               0.300000E-02
         36               0.300000E-02
         37               0.300000E-02
         38               0.300000E-02
         39               0.300000E-02
         40               0.300000E-02
         41               0.300000E-02
         42               0.300000E-02
         43               0.300000E-02
         44               0.300000E-02
         45               0.300000E-02
         46               0.300000E-02
         47               0.300000E-02
         48               0.300000E-02
         49               0.300000E-02
         50               0.300000E-02
         51               0.300000E-02
         52               0.300000E-02
         53               0.300000E-02
         54               0.300000E-02
         55               0.300000E-02
         56               0.300000E-02
         57               0.300000E-02
         58               0.300000E-02
         59               0.300000E-02
         60               0.396174E-02
         61               0.208955E-01
         62               0.462574E-01
         63               0.276333E-01
         64               0.278036E-01
         65               0.227695E-01
         66               0.102043E-01
         67               0.300000E-02
         68               0.300000E-02
         69               0.300000E-02
         70               0.300000E-02
         71               0.300000E-02
         72               0.300000E-02
         73               0.300000E-02
         74               0.300000E-02
         75               0.103751E-01
         76               0.944473E-02
         77               0.310356E-01
         78               0.209499E-01
         79               0.142300E-01
         80               0.405921E-02
         81               0.300000E-02
         82               0.300000E-02
         83               0.300000E-02
         84               0.300000E-02
         85               0.300000E-02
         86               0.300000E-02
         87               0.300000E-02
         88               0.300000E-02
         89               0.300000E-02
         90               0.300000E-02
         91               0.300000E-02
         92               0.300000E-02
         93               0.300000E-02
         94               0.300000E-02
         95               0.300000E-02
         96               0.300000E-02
         97               0.300000E-02
         98               0.300000E-02
         99               0.300000E-02
        100               0.300000E-02
        101               0.300000E-02
        102               0.300000E-02
        103               0.300000E-02
        104               0.300000E-02
        105               0.451059E-02
        106               0.300000E-02
        107               0.300000E-02
        108               0.300000E-02
        109               0.300000E-02
        110               0.300000E-02
        111               0.300000E-02
        112               0.300000E-02
        113               0.300000E-02
        114               0.300000E-02
        115               0.300000E-02
        116               0.300000E-02
        117               0.300000E-02
        118               0.300000E-02
        119               0.300000E-02
        120               0.300000E-02
        121               0.300000E-02
        122               0.300000E-02
        123               0.300000E-02
        124               0.300000E-02
        125               0.300000E-02
        126               0.300000E-02
        127               0.300000E-02
        128               0.300000E-02
        129               0.300000E-02
        130               0.300000E-02
        131               0.300000E-02
        132               0.300000E-02
        133               0.300000E-02
        134               0.300000E-02
        135               0.300000E-02
        136               0.300000E-02
        137               0.300000E-02
        138               0.300000E-02
        139               0.300000E-02
        140               0.300000E-02
        141               0.300000E-02
        142               0.300000E-02
        143               0.300000E-02
        144               0.300000E-02
        145               0.300000E-02
        146               0.300000E-02
        147               0.300000E-02
        148               0.300000E-02
        149               0.300000E-02
        150               0.300000E-02
        151               0.300000E-02
        152               0.300000E-02
        153               0.300000E-02
        154               0.300000E-02
        155               0.300000E-02
        156               0.300000E-02
        157               0.332174E-02
        158               0.300000E-02
        159               0.300000E-02
        160               0.300000E-02
        161               0.300000E-02
        162               0.300000E-02
        163               0.300000E-02
        164               0.300000E-02
        165               0.300000E-02
        166               0.300000E-02
        167               0.300000E-02
        168               0.300000E-02
        169               0.300000E-02
        170               0.300000E-02
        171               0.300000E-02
        172               0.300000E-02
        173               0.300000E-02
        174               0.300000E-02
        175               0.300000E-02
        176               0.300000E-02
        177               0.300000E-02
        178               0.300000E-02
        179               0.300000E-02
        180               0.300000E-02
        181               0.300000E-02
        182               0.300000E-02
        183               0.300000E-02
        184               0.300000E-02
        185               0.300000E-02
        186               0.300000E-02
        187               0.300000E-02
        188               0.300000E-02
        189               0.300000E-02
        190               0.300000E-02
        191               0.300000E-02
        192               0.300000E-02
        193               0.300000E-02
        194               0.300000E-02
        195               0.300000E-02
        196               0.300000E-02
        197               0.300000E-02
        198               0.300000E-02
        199               0.300000E-02
        200               0.300000E-02
        201               0.300000E-02
        202               0.300000E-02
        203               0.300000E-02
        204               0.300000E-02
        205               0.300000E-02
        206               0.300000E-02
        207               0.300000E-02
        208               0.300000E-02
        209               0.300000E-02
        210               0.300000E-02
        211               0.300000E-02
        212               0.300000E-02
        213               0.300000E-02
        214               0.300000E-02
        215               0.300000E-02
        216               0.300000E-02
        217               0.300000E-02
        218               0.300000E-02
        219               0.300000E-02
        220               0.300000E-02
        221               0.300000E-02
        222               0.300000E-02
        223               0.300000E-02
        224               0.300000E-02
        225               0.300000E-02
        226               0.300000E-02
        227               0.300000E-02
        228               0.300000E-02
        229               0.300000E-02
        230               0.300000E-02
        231               0.300000E-02
        232               0.300000E-02
        233               0.300000E-02
        234               0.300000E-02
        235               0.300000E-02
        236               0.300000E-02
        237               0.300000E-02
        238               0.300000E-02
        239               0.300000E-02
        240               0.300000E-02
        241               0.300000E-02
        242               0.300000E-02
        243               0.300000E-02
        244               0.300000E-02
        245               0.300000E-02
        246               0.300000E-02
        247               0.300000E-02
        248               0.300000E-02
        249               0.300000E-02
        250               0.300000E-02
        251               0.300000E-02
        252               0.300000E-02
        253               0.300000E-02
        254               0.300000E-02
        255               0.300000E-02
        256               0.300000E-02
        257               0.300000E-02
        258               0.300000E-02
        259               0.300000E-02
        260               0.300000E-02
        261               0.300000E-02
        262               0.300000E-02
        263               0.300000E-02
        264               0.300000E-02
        265               0.300000E-02
        266               0.300000E-02
        267               0.300000E-02
        268               0.300000E-02
        269               0.300000E-02
        270               0.300000E-02
        271               0.300000E-02
        272               0.300000E-02
        273               0.300000E-02
        274               0.300000E-02
        275               0.300000E-02
        276               0.300000E-02
        277               0.300000E-02
        278               0.300000E-02
        279               0.300000E-02
        280               0.300000E-02
        281               0.300000E-02
        282               0.300000E-02
        283               0.300000E-02
        284               0.300000E-02
        285               0.300000E-02
        286               0.300000E-02
        287               0.300000E-02
        288               0.300000E-02
        289               0.300000E-02
        290               0.300000E-02
        291               0.300000E-02
        292               0.300000E-02
        293               0.300000E-02
        294               0.300000E-02
        295               0.300000E-02
        296               0.300000E-02
        297               0.300000E-02
        298               0.300000E-02
        299               0.300000E-02
        300               0.300000E-02
        301               0.300000E-02
        302               0.300000E-02
        303               0.300000E-02
        304               0.300000E-02
        305               0.300000E-02
        306               0.300000E-02
        307               0.300000E-02
        308               0.300000E-02
        309               0.300000E-02
        310               0.722348E-02
        311               0.300000E-02
        312               0.300000E-02
        313               0.300000E-02
        314               0.300000E-02
        315               0.300000E-02
        316               0.300000E-02
        317               0.300000E-02
        318               0.300000E-02
        319               0.300000E-02
        320               0.300000E-02
        321               0.300000E-02
        322               0.300000E-02
        323               0.300000E-02
        324               0.300000E-02
        325               0.547484E-02
        326               0.300000E-02
        327               0.300000E-02
        328               0.300000E-02
        329               0.300000E-02
        330               0.300000E-02
        331               0.300000E-02
        332               0.300000E-02
        333               0.300000E-02
        334               0.300000E-02
        335               0.994625E-02
        336               0.951490E-02
        337               0.300000E-02
        338               0.300000E-02
        339               0.300000E-02
        340               0.300000E-02
        341               0.300000E-02
        342               0.300000E-02
        343               0.300000E-02
        344               0.300000E-02
        345               0.300000E-02
        346               0.300000E-02
        347               0.300000E-02
        348               0.300000E-02
        349               0.300000E-02
        350               0.300000E-02
        351               0.300000E-02
        352               0.300000E-02
        353               0.300000E-02
        354               0.300000E-02
        355               0.300000E-02
        356               0.300000E-02
        357               0.300000E-02
        358               0.300000E-02
        359               0.300000E-02
        360               0.685744E-02
        361               0.704141E-02
        362               0.300000E-02
        363               0.300000E-02
        364               0.300000E-02
        365               0.300000E-02
        366               0.300000E-02
        367               0.300000E-02
        368               0.300000E-02
        369               0.300000E-02
        370               0.300000E-02
        371               0.300000E-02
        372               0.300000E-02
        373               0.300000E-02
        374               0.300000E-02
        375               0.300000E-02
        376               0.300000E-02
        377               0.300000E-02
        378               0.300000E-02
        379               0.300000E-02
        380               0.300000E-02
        381               0.300000E-02
        382               0.300000E-02
        383               0.300000E-02
        384               0.300000E-02
        385               0.300000E-02
        386               0.113957E-01
        387               0.300000E-02
        388               0.300000E-02
        389               0.300000E-02
        390               0.300000E-02
        391               0.300000E-02
        392               0.300000E-02
        393               0.300000E-02
        394               0.300000E-02
        395               0.300000E-02
        396               0.300000E-02
        397               0.300000E-02
        398               0.104956E-01
        399               0.300000E-02
        400               0.300000E-02
        401               0.300000E-02
        402               0.300000E-02
        403               0.300000E-02
        404               0.300000E-02
        405               0.300000E-02
        406               0.300000E-02
        407               0.300000E-02
        408               0.300000E-02
        409               0.300000E-02
        410               0.300000E-02
        411               0.300000E-02
        412               0.300000E-02
        413               0.300000E-02
        414               0.300000E-02
        415               0.300000E-02
        416               0.300000E-02
        417               0.300000E-02
        418               0.300000E-02
        419               0.300000E-02
        420               0.300000E-02
        421               0.300000E-02
        422               0.300000E-02
        423               0.300000E-02
        424               0.300000E-02
        425               0.300000E-02
        426               0.300000E-02
        427               0.300000E-02
        428               0.300000E-02
        429               0.300000E-02
        430               0.300000E-02
        431               0.300000E-02
        432               0.300000E-02
        433               0.300000E-02
        434               0.787016E-02
        435               0.300000E-02
        436               0.300000E-02
        437               0.300000E-02
        438               0.300000E-02
        439               0.300000E-02
        440               0.300000E-02
        441               0.300000E-02
        442               0.300000E-02
        443               0.300000E-02
        444               0.300000E-02
        445               0.300000E-02
        446               0.300000E-02
        447               0.300000E-02
        448               0.300000E-02
        449               0.300000E-02
        450               0.300000E-02
        451               0.300000E-02
        452               0.300000E-02
        453               0.300000E-02
        454               0.300000E-02
        455               0.300000E-02
        456               0.300000E-02
        457               0.300000E-02
        458               0.300000E-02
        459               0.300000E-02
        460               0.300000E-02
        461               0.300000E-02
        462               0.300000E-02
        463               0.300000E-02
        464               0.300000E-02
        465               0.300000E-02
        466               0.300000E-02
        467               0.300000E-02
        468               0.300000E-02
        469               0.300000E-02
        470               0.300000E-02
        471               0.300000E-02
        472               0.300000E-02
        473               0.300000E-02
        474               0.300000E-02
        475               0.300000E-02
        476               0.300000E-02
        477               0.300000E-02
        478               0.300000E-02
        479               0.316706E-01
        480               0.677781E-02
        481               0.765452E-02
        482               0.679436E-02
        483               0.589490E-02
        484               0.989435E-02
        485               0.100996E-01
        486               0.193501E-01
        487               0.300000E-02
        488               0.600005E-02
        489               0.871257E-02
        490               0.300000E-02
        491               0.663044E-02
        492               0.940227E-02
        493               0.634314E-02
        494               0.326355E-01
        495               0.103648E-01
        496               0.542414E-02
        497               0.132684E-01
        498               0.300000E-02
        499               0.300000E-02
        500               0.710015E-02
        501               0.300000E-02
        502               0.300000E-02
        503               0.300000E-02
        504               0.300000E-02
        505               0.300000E-02
        506               0.678488E-02
        507               0.300000E-02
        508               0.300000E-02
        509               0.300000E-02
        510               0.300000E-02
        511               0.300000E-02
        512               0.300000E-02
        513               0.536523E-02
        514               0.500571E-02
        515               0.300000E-02
        516               0.300000E-02
        517               0.300000E-02
        518               0.300000E-02
        519               0.300000E-02
        520               0.300000E-02
        521               0.300000E-02
        522               0.300000E-02
        523               0.300000E-02
        524               0.300000E-02
        525               0.300000E-02
        526               0.300000E-02
        527               0.300000E-02
        528               0.300000E-02
        529               0.300000E-02
        530               0.300000E-02
        531               0.300000E-02
        532               0.300000E-02
        533               0.300000E-02
        534               0.300000E-02
        535               0.300000E-02
        536               0.334910E-02
        537               0.300000E-02
        538               0.300000E-02
        539               0.300000E-02
        540               0.300000E-02
        541               0.300000E-02
        542               0.300000E-02
        543               0.300000E-02
        544               0.300000E-02
        545               0.300000E-02
        546               0.300000E-02
        547               0.300000E-02
        548               0.705897E-02
        549               0.300000E-02
        550               0.300000E-02
        551               0.300000E-02
        552               0.300000E-02
        553               0.300000E-02
        554               0.300000E-02
        555               0.300000E-02
        556               0.300000E-02
        557               0.300000E-02
        558               0.300000E-02
        559               0.300000E-02
        560               0.300000E-02
        561               0.300000E-02
        562               0.300000E-02
        563               0.300000E-02
        564               0.300000E-02
        565               0.300000E-02
        566               0.300000E-02
        567               0.300000E-02
        568               0.300000E-02
        569               0.300000E-02
        570               0.300000E-02
        571               0.300000E-02
        572               0.300000E-02
        573               0.300000E-02
        574               0.300000E-02
        575               0.300000E-02
        576               0.300000E-02
        577               0.300000E-02
        578               0.300000E-02
        579               0.554851E-02
        580               0.300000E-02
        581               0.300000E-02
        582               0.300000E-02
        583               0.300000E-02
        584               0.300000E-02
        585               0.300000E-02
        586               0.300000E-02
        587               0.300000E-02
        588               0.300000E-02
        589               0.300000E-02
        590               0.300000E-02
        591               0.300000E-02
        592               0.300000E-02
        593               0.300000E-02
        594               0.300000E-02
        595               0.300000E-02
        596               0.105088E-01
        597               0.300000E-02
        598               0.300000E-02
        599               0.300000E-02
        600               0.300000E-02
        601               0.300000E-02
        602               0.300000E-02
        603               0.300000E-02
        604               0.300000E-02
        605               0.300000E-02
        606               0.300000E-02
        607               0.300000E-02
        608               0.300000E-02
        609               0.300000E-02
        610               0.300000E-02
        611               0.300000E-02
        612               0.300000E-02
        613               0.300000E-02
        614               0.300000E-02
        615               0.300000E-02
        616               0.300000E-02
        617               0.300000E-02
        618               0.300000E-02
        619               0.539635E-02
        620               0.644865E-01
        621               0.202070E-01
        622               0.155937E-01
        623               0.737079E-02
        624               0.300000E-02
        625               0.300000E-02
        626               0.300000E-02
        627               0.300000E-02
        628               0.300000E-02
        629               0.300000E-02
        630               0.300000E-02
        631               0.300000E-02
        632               0.300000E-02
        633               0.300000E-02
        634               0.300000E-02
        635               0.300000E-02
        636               0.300000E-02
        637               0.300000E-02
        638               0.300000E-02
        639               0.300000E-02
        640               0.300000E-02
        641               0.300000E-02
        642               0.300000E-02
        643               0.300000E-02
        644               0.300000E-02
        645               0.326299E-01
        646               0.162551E-01
        647               0.300000E-02
        648               0.300000E-02
        649               0.300000E-02
        650               0.274111E-01
        651               0.252632E-01
        652               0.438479E-01
        653               0.381035E-01
        654               0.300000E-02
        655               0.300000E-02
        656               0.511389E-01
        657               0.299015E-01
        658               0.621522E-01
        659               0.214316E-01
        660               0.165024E-01
        661               0.353706E-01
        662               0.292970E-01
        663               0.276950E-01
        664               0.300000E-02
        665               0.300000E-02
        666               0.332666E-01
        667               0.417902E-01
        668               0.409780E-01
        669               0.698471E-01
        670               0.222858E-01
        671               0.300000E-02
        672               0.300000E-02
        673               0.300000E-02
        674               0.300000E-02
        675               0.773656E-02
        676               0.300000E-02
        677               0.300000E-02
        678               0.300000E-02
        679               0.300000E-02
        680               0.300000E-02
        681               0.300000E-02
        682               0.234969E-01
        683               0.300000E-02
        684               0.300000E-02
        685               0.300000E-02
        686               0.300000E-02
        687               0.300000E-02
        688               0.118208E-01
        689               0.589295E-02
        690               0.650697E-01
        691               0.300000E-02
        692               0.300000E-02
        693               0.300000E-02
        694               0.101632E-01
        695               0.453095E-02
        696               0.126464E-01
        697               0.673724E-02
        698               0.149838E-01
        699               0.383074E-02
        700               0.300000E-02
        701               0.163432E-01
        702               0.821735E-01
        703               0.300000E-02
        704               0.300000E-02
        705               0.300000E-02
        706               0.300000E-02
        707               0.300000E-02
        708               0.300000E-02
        709               0.300000E-02
        710               0.300000E-02
        711               0.300000E-02
        712               0.300000E-02
        713               0.300000E-02
        714               0.300000E-02
        715               0.300000E-02
        716               0.300000E-02
        717               0.300000E-02
        718               0.300000E-02
        719               0.300000E-02
        720               0.300000E-02
        721               0.300000E-02
        722               0.300000E-02
        723               0.300000E-02
        724               0.953570E-01
        725               0.300000E-02
        726               0.798052E-02
        727               0.300000E-02
        728               0.300000E-02
        729               0.300000E-02
        730               0.300000E-02
        731               0.300000E-02
        732               0.919270E-02
        733               0.300000E-02
        734               0.300000E-02
        735               0.346907E-02
        736               0.300000E-02
        737               0.300000E-02
        738               0.300000E-02
        739               0.300000E-02
        740               0.300000E-02
        741               0.300000E-02
        742               0.300000E-02
        743               0.300000E-02
        744               0.300000E-02
        745               0.300000E-02
        746               0.300000E-02
        747               0.300000E-02
        748               0.300000E-02
        749               0.300000E-02
        750               0.220176E-01
        751               0.300000E-02
        752               0.300000E-02
        753               0.300000E-02
        754               0.300000E-02
        755               0.300000E-02
        756               0.300000E-02
        757               0.300000E-02
        758               0.300000E-02
        759               0.300000E-02
        760               0.300000E-02
        761               0.274154E-01
        762               0.668700E-01
        763               0.623962E-01
        764               0.860405E-01
        765               0.672871E-01
        766               0.735202E-01
        767               0.237321E-01
        768               0.401102E-01
        769               0.255259E-01
        770               0.300000E-02
        771               0.964019E-01
        772               0.638011E-01
        773               0.398297E-01
        774               0.150518E-01
        775               0.209936E-01
        776               0.300000E-02
        777               0.300000E-02
        778               0.229627E-01
        779               0.482831E-01
        780               0.300000E-02
        781               0.415284E-02
        782               0.300000E-02
        783               0.300000E-02
        784               0.675004E-01
        785               0.666296E-01
        786               0.140220E-01
        787               0.300000E-02
        788               0.171215E-01
        789               0.249152E-01
        790               0.890519E-01
        791               0.270722E-01
        792               0.420159E-01
        793               0.300000E-02
        794               0.647412E-01
        795               0.718474E-01
        796               0.300000E-02
        797               0.300000E-02
        798               0.709213E-02
        799               0.300000E-02
        800               0.300000E-02
        801               0.300000E-02
        802               0.300000E-02
        803               0.300000E-02
        804               0.300000E-02
        805               0.817404E-01
        806               0.292146E-01
        807               0.300000E-02
        808               0.300000E-02
        809               0.300000E-02
        810               0.300000E-02
        811               0.300000E-02
        812               0.300000E-02
        813               0.300000E-02
        814               0.300000E-02
        815               0.531504E-01
        816               0.300000E-02
        817               0.230941E-01
        818               0.470178E-01
        819               0.561702E-01
        820               0.349087E-02
        821               0.405002E-01
        822               0.300000E-02
        823               0.300000E-02
        824               0.268631E-01
        825               0.442300E-01
        826               0.300000E-02
        827               0.133809E-01
        828               0.300000E-02
        829               0.300000E-02
        830               0.300000E-02
        831               0.300000E-02
        832               0.300000E-02
        833               0.220606E-01
        834               0.300000E-02
        835               0.300000E-02
        836               0.434470E-02
        837               0.312322E-02
        838               0.300000E-02
        839               0.300000E-02
        840               0.300000E-02
        841               0.300000E-02
        842               0.300000E-02
        843               0.300000E-02
        844               0.300000E-02
        845               0.102109E-01
        846               0.171797E-01
        847               0.755165E-01
        848               0.212556E-01
        849               0.302486E-01
        850               0.243891E-01
        851               0.367657E-01
        852               0.300000E-02
        853               0.300000E-02
        854               0.866563E-02
        855               0.819216E-02
        856               0.300000E-02
        857               0.300000E-02
        858               0.300000E-02
        859               0.300000E-02
        860               0.300000E-02
        861               0.300000E-02
        862               0.300000E-02
        863               0.298909E-01
        864               0.250993E-01
        865               0.267094E-01
        866               0.839496E-02
        867               0.226190E-01
        868               0.443233E-01
        869               0.300000E-02
        870               0.472630E-01
        871               0.300000E-02
        872               0.381878E-02
        873               0.691404E-02
        874               0.203351E-01
        875               0.300000E-02
        876               0.300000E-02
        877               0.300000E-02
        878               0.338520E-01
        879               0.190090E-01
        880               0.189776E-01
        881               0.154563E-01
        882               0.300000E-02
        883               0.300000E-02
        884               0.300000E-02
        885               0.300000E-02
        886               0.300000E-02
        887               0.300000E-02
        888               0.300000E-02
        889               0.300000E-02
        890               0.300000E-02
        891               0.300000E-02
        892               0.300000E-02
        893               0.300000E-02
        894               0.862798E-02
        895               0.300000E-02
        896               0.300000E-02
        897               0.300000E-02
        898               0.300000E-02
        899               0.300000E-02
        900               0.105382E-01
        901               0.299916E-01
        902               0.199973E-01
        903               0.283343E-01
        904               0.197056E-01
        905               0.124562E-01
        906               0.780580E-02
        907               0.312293E-02
        908               0.300000E-02
        909               0.300000E-02
        910               0.300000E-02
        911               0.112531E-01
        912               0.237695E-01
        913               0.170485E-01
        914               0.512376E-02
        915               0.152622E-01
        916               0.125452E-01
        917               0.139462E-01
        918               0.905259E-02
        919               0.170346E-01
        920               0.119942E-01
        921               0.300000E-02
        922               0.300000E-02
        923               0.119861E-01
        924               0.300000E-02
        925               0.813792E-02
        926               0.300000E-02
        927               0.300000E-02
        928               0.300000E-02
        929               0.300000E-02
        930               0.300000E-02
        931               0.300000E-02
        932               0.300000E-02
        933               0.300000E-02
        934               0.300000E-02
        935               0.976835E-02
        936               0.300000E-02
        937               0.161940E-01
        938               0.300000E-02
        939               0.300000E-02
        940               0.151057E-01
        941               0.843229E-02
        942               0.242423E-01
        943               0.138837E-01
        944               0.300000E-02
        945               0.300000E-02
        946               0.908138E-02
        947               0.134631E-01
        948               0.285965E-01
        949               0.124998E-01
        950               0.300000E-02
        951               0.300000E-02
        952               0.705997E-02
        953               0.300000E-02
        954               0.300000E-02
        955               0.300000E-02
        956               0.300000E-02
        957               0.300000E-02
        958               0.300000E-02
        959               0.300000E-02
        960               0.300000E-02
        961               0.300000E-02
        962               0.300000E-02
        963               0.300000E-02
        964               0.300000E-02
        965               0.300000E-02
        966               0.300000E-02
        967               0.300000E-02
        968               0.451935E-02
        969               0.300000E-02
        970               0.300000E-02
        971               0.300000E-02
        972               0.300000E-02
        973               0.300000E-02
        974               0.300000E-02
        975               0.300000E-02
        976               0.300000E-02
        977               0.300000E-02
        978               0.434854E-02
        979               0.733834E-02
        980               0.611501E-02
        981               0.300000E-02
        982               0.300000E-02
        983               0.300000E-02
        984               0.551955E-02
        985               0.300000E-02
        986               0.300000E-02
        987               0.300000E-02
        988               0.300000E-02
        989               0.300000E-02
        990               0.300000E-02
        991               0.300000E-02
        992               0.300000E-02
        993               0.300000E-02
        994               0.346100E-02
        995               0.300000E-02
        996               0.300000E-02
        997               0.300000E-02
        998               0.300000E-02
        999               0.340396E-02
       1000               0.300000E-02
       1001               0.300000E-02
       1002               0.300000E-02
       1003               0.300000E-02
       1004               0.300000E-02
       1005               0.300000E-02
       1006               0.300000E-02
       1007               0.300000E-02
       1008               0.300000E-02
       1009               0.300000E-02
       1010               0.300000E-02
       1011               0.300000E-02
       1012               0.300000E-02
       1013               0.300000E-02
       1014               0.300000E-02
       1015               0.300000E-02
       1016               0.300000E-02
       1017               0.300000E-02
       1018               0.300000E-02
       1019               0.300000E-02
       1020               0.300000E-02
       1021               0.141200E-01
       1022               0.143707E-01
       1023               0.449287E-02
       1024               0.300000E-02
       1025               0.300000E-02
       1026               0.300000E-02
       1027               0.300000E-02
       1028               0.300000E-02
       1029               0.300000E-02
       1030               0.300000E-02
       1031               0.573946E-02
       1032               0.300000E-02
       1033               0.300000E-02
       1034               0.188781E-01
       1035               0.968301E-02
       1036               0.300000E-02
       1037               0.108721E-01
       1038               0.245435E-01
       1039               0.277132E-01
       1040               0.103431E-01
       1041               0.742465E-02
       1042               0.199575E-01
       1043               0.300000E-02
       1044               0.163798E-01
       1045               0.517514E-01
       1046               0.608177E-01
       1047               0.153803E-01
       1048               0.300000E-02
       1049               0.300000E-02
       1050               0.260015E-01
       1051               0.300000E-02
       1052               0.300000E-02
       1053               0.300000E-02
       1054               0.300000E-02
       1055               0.300000E-02
       1056               0.300000E-02
       1057               0.300000E-02
       1058               0.300000E-02
       1059               0.300000E-02
       1060               0.300000E-02
       1061               0.244795E-01
       1062               0.280666E-01
       1063               0.235952E-01
       1064               0.225917E-01
       1065               0.348650E-01
       1066               0.300000E-02
       1067               0.158984E-01
       1068               0.126884E-01
       1069               0.300000E-02
       1070               0.300000E-02
       1071               0.300000E-02
       1072               0.222839E-01
       1073               0.246702E-01
       1074               0.300000E-02
       1075               0.300000E-02
       1076               0.128879E-01
       1077               0.300000E-02
       1078               0.366415E-01
       1079               0.300000E-02
       1080               0.300000E-02
       1081               0.633196E-02
       1082               0.300000E-02
       1083               0.300000E-02
       1084               0.241699E-01
       1085               0.158902E-01
       1086               0.300000E-02
       1087               0.300000E-02
       1088               0.300000E-02
       1089               0.300000E-02
       1090               0.300000E-02
       1091               0.136192E-01
       1092               0.300000E-02
       1093               0.249897E-01
       1094               0.222204E-01
       1095               0.300000E-02
       1096               0.982425E-02
       1097               0.196508E-01
       1098               0.403810E-01
       1099               0.405922E-01
       1100               0.254698E-01
       1101               0.108434E-01
       1102               0.267942E-01
       1103               0.300000E-02
       1104               0.300000E-02
       1105               0.300000E-02
       1106               0.300000E-02
       1107               0.698196E-02
       1108               0.624396E-01
       1109               0.300000E-02
       1110               0.304637E-02
       1111               0.300000E-02
       1112               0.300000E-02
       1113               0.300000E-02
       1114               0.109527E-01
       1115               0.817517E-02
       1116               0.156970E-01
       1117               0.704141E-02
       1118               0.237065E-01
       1119               0.116455E-01
       1120               0.609994E-02
       1121               0.300000E-02
       1122               0.300000E-02
       1123               0.300000E-02
       1124               0.300000E-02
       1125               0.216111E-01
       1126               0.220650E-01
       1127               0.161789E-01
       1128               0.300000E-02
       1129               0.261515E-01
       1130               0.300000E-02
       1131               0.113138E-01
       1132               0.300000E-02
       1133               0.715836E-02
       1134               0.300000E-02
       1135               0.300000E-02
       1136               0.300000E-02
       1137               0.857216E-02
       1138               0.300000E-02
       1139               0.172180E-01
       1140               0.281901E-01
       1141               0.300000E-02
       1142               0.203872E-01
       1143               0.269952E-01
       1144               0.241841E-01
       1145               0.273144E-01
       1146               0.300000E-02
       1147               0.300000E-02
       1148               0.158850E-01
       1149               0.300000E-02
       1150               0.300000E-02
       1151               0.199807E-01
       1152               0.300000E-02
       1153               0.300000E-02
       1154               0.300000E-02
       1155               0.300000E-02
       1156               0.300000E-02
       1157               0.300000E-02
       1158               0.300000E-02
       1159               0.300000E-02
       1160               0.300000E-02
       1161               0.300000E-02
       1162               0.300000E-02
       1163               0.300000E-02
       1164               0.300000E-02
       1165               0.300000E-02
       1166               0.300000E-02
       1167               0.300000E-02
       1168               0.300000E-02
       1169               0.300000E-02
       1170               0.300000E-02
       1171               0.300000E-02
       1172               0.300000E-02
       1173               0.300000E-02
       1174               0.300000E-02
       1175               0.300000E-02
       1176               0.300000E-02
       1177               0.300000E-02
       1178               0.300000E-02
       1179               0.300000E-02
       1180               0.300000E-02
       1181               0.300000E-02
       1182               0.300000E-02
       1183               0.300000E-02
       1184               0.300000E-02
       1185               0.300000E-02
       1186               0.300000E-02
       1187               0.300000E-02
       1188               0.300000E-02
       1189               0.300000E-02
       1190               0.300000E-02
       1191               0.300000E-02
       1192               0.300000E-02
       1193               0.300000E-02
       1194               0.300000E-02
       1195               0.300000E-02
       1196               0.300000E-02
       1197               0.188533E-01
       1198               0.116694E-01
       1199               0.195028E-01
       1200               0.300000E-02
       1201               0.300000E-02
       1202               0.300000E-02
       1203               0.117468E-01
       1204               0.303419E-02
       1205               0.300000E-02
       1206               0.300000E-02
       1207               0.300000E-02
       1208               0.410940E-02
       1209               0.300000E-02
       1210               0.300000E-02
       1211               0.300000E-02
       1212               0.300000E-02
       1213               0.160928E-01
       1214               0.689981E-02
       1215               0.113580E-01
       1216               0.300000E-02
       1217               0.300000E-02
       1218               0.300000E-02
       1219               0.120385E-01
       1220               0.300000E-02
       1221               0.202643E-01
       1222               0.873529E-02
       1223               0.418266E-02
       1224               0.300000E-02
       1225               0.744429E-01
       1226               0.290286E-01
       1227               0.177493E-01
       1228               0.300000E-02
       1229               0.566058E-02
       1230               0.300000E-02
       1231               0.300000E-02
       1232               0.300000E-02
       1233               0.194028E-01
       1234               0.555281E-01
       1235               0.300000E-02
       1236               0.300000E-02
       1237               0.300000E-02
       1238               0.300000E-02
       1239               0.285117E-01
       1240               0.300000E-02
       1241               0.600018E-01
       1242               0.300000E-02
       1243               0.183987E-01
       1244               0.186745E-01
       1245               0.205566E-01
       1246               0.300000E-02
       1247               0.300000E-02
       1248               0.300000E-02
       1249               0.300000E-02
       1250               0.300000E-02
       1251               0.300000E-02
       1252               0.300000E-02
       1253               0.371314E-01
       1254               0.300000E-02
       1255               0.300000E-02
       1256               0.129872E-01
       1257               0.194634E-01
       1258               0.300000E-02
       1259               0.300000E-02
       1260               0.235387E-01
       1261               0.118128E-01
       1262               0.300000E-02
       1263               0.300000E-02
       1264               0.300000E-02
       1265               0.300000E-02
       1266               0.300000E-02
       1267               0.300000E-02
       1268               0.300000E-02
       1269               0.300000E-02
       1270               0.300000E-02
       1271               0.300000E-02
       1272               0.300000E-02
       1273               0.300000E-02
       1274               0.300000E-02
       1275               0.300000E-02
       1276               0.300000E-02
       1277               0.300000E-02
       1278               0.300000E-02
       1279               0.300000E-02
       1280               0.300000E-02
       1281               0.300000E-02
       1282               0.300000E-02
       1283               0.300000E-02
       1284               0.300000E-02
       1285               0.300000E-02
       1286               0.300000E-02
       1287               0.300000E-02
       1288               0.300000E-02
       1289               0.300000E-02
       1290               0.300000E-02
       1291               0.300000E-02
       1292               0.300000E-02
       1293               0.300000E-02
       1294               0.300000E-02
       1295               0.300000E-02
       1296               0.300000E-02
       1297               0.300000E-02
       1298               0.300000E-02
       1299               0.274040E-01
       1300               0.300000E-02
       1301               0.300000E-02
       1302               0.300000E-02
       1303               0.300000E-02
       1304               0.300000E-02
       1305               0.300000E-02
       1306               0.300000E-02
       1307               0.300000E-02
       1308               0.300000E-02
       1309               0.300000E-02
       1310               0.300000E-02
       1311               0.300000E-02
       1312               0.300000E-02
       1313               0.300000E-02
       1314               0.300000E-02
       1315               0.300000E-02
       1316               0.300000E-02
       1317               0.300000E-02
       1318               0.300000E-02
       1319               0.300000E-02
       1320               0.300000E-02
       1321               0.300000E-02
       1322               0.300000E-02
       1323               0.300000E-02
       1324               0.300000E-02
       1325               0.300000E-02
       1326               0.300000E-02
       1327               0.300000E-02
       1328               0.300000E-02
       1329               0.300000E-02
       1330               0.300000E-02
       1331               0.300000E-02
       1332               0.300000E-02
       1333               0.300000E-02
       1334               0.300000E-02
       1335               0.300000E-02
       1336               0.300000E-02
       1337               0.300000E-02
       1338               0.300000E-02
       1339               0.300000E-02
       1340               0.300000E-02
       1341               0.300000E-02
       1342               0.300000E-02
       1343               0.300000E-02
       1344               0.300000E-02
       1345               0.300000E-02
       1346               0.300000E-02
       1347               0.300000E-02
       1348               0.300000E-02
       1349               0.300000E-02
       1350               0.300000E-02
       1351               0.300000E-02
       1352               0.300000E-02
       1353               0.300000E-02
       1354               0.300000E-02
       1355               0.300000E-02
       1356               0.300000E-02
       1357               0.300000E-02
       1358               0.300000E-02
       1359               0.300000E-02
       1360               0.300000E-02
       1361               0.300000E-02
       1362               0.300000E-02
       1363               0.300000E-02
       1364               0.300000E-02
       1365               0.300000E-02
       1366               0.300000E-02
       1367               0.300000E-02
       1368               0.300000E-02
       1369               0.300000E-02
       1370               0.300000E-02
       1371               0.300000E-02
       1372               0.300000E-02
       1373               0.300000E-02
       1374               0.300000E-02
       1375               0.300000E-02
       1376               0.300000E-02
       1377               0.300000E-02
       1378               0.300000E-02
       1379               0.300000E-02
       1380               0.300000E-02
       1381               0.300000E-02
       1382               0.300000E-02
       1383               0.300000E-02
       1384               0.300000E-02
       1385               0.300000E-02
       1386               0.300000E-02
       1387               0.300000E-02
       1388               0.300000E-02
       1389               0.300000E-02
       1390               0.300000E-02
       1391               0.300000E-02
       1392               0.300000E-02
       1393               0.300000E-02
       1394               0.300000E-02
       1395               0.300000E-02
       1396               0.300000E-02
       1397               0.300000E-02
       1398               0.300000E-02
       1399               0.300000E-02
       1400               0.300000E-02
       1401               0.300000E-02
       1402               0.300000E-02
       1403               0.300000E-02
       1404               0.300000E-02
       1405               0.300000E-02
       1406               0.300000E-02
       1407               0.300000E-02
       1408               0.300000E-02
       1409               0.300000E-02
       1410               0.300000E-02
       1411               0.300000E-02
       1412               0.300000E-02
       1413               0.300000E-02
       1414               0.300000E-02
       1415               0.300000E-02
       1416               0.300000E-02
       1417               0.300000E-02
       1418               0.300000E-02
       1419               0.300000E-02
       1420               0.300000E-02
       1421               0.300000E-02
       1422               0.300000E-02
       1423               0.300000E-02
       1424               0.300000E-02
       1425               0.300000E-02
       1426               0.300000E-02
       1427               0.300000E-02
       1428               0.300000E-02
       1429               0.300000E-02
       1430               0.300000E-02
       1431               0.300000E-02
       1432               0.300000E-02
       1433               0.490467E-01
       1434               0.203837E-01
       1435               0.632654E-01
       1436               0.300000E-02
       1437               0.300000E-02
       1438               0.300000E-02
       1439               0.300000E-02
       1440               0.300000E-02
       1441               0.300000E-02
       1442               0.300000E-02
       1443               0.300000E-02
       1444               0.177864E-01
       1445               0.175145E-01
       1446               0.175558E-01
       1447               0.300000E-02
       1448               0.300000E-02
       1449               0.300000E-02
       1450               0.300000E-02
       1451               0.300000E-02
       1452               0.300000E-02
       1453               0.300000E-02
       1454               0.203214E-01
       1455               0.300000E-02
       1456               0.395426E-01
       1457               0.892188E-02
       1458               0.255759E-01
       1459               0.254885E-01
       1460               0.300000E-02
       1461               0.300000E-02
       1462               0.300000E-02
       1463               0.344647E-01
       1464               0.300000E-02
       1465               0.300000E-02
       1466               0.300000E-02
       1467               0.300000E-02
       1468               0.390357E-02
       1469               0.395195E-01
       1470               0.300000E-02
       1471               0.300000E-02
       1472               0.300000E-02
       1473               0.300000E-02
       1474               0.300000E-02
       1475               0.300000E-02
       1476               0.300000E-02
       1477               0.300000E-02
       1478               0.300000E-02
       1479               0.300000E-02
       1480               0.300000E-02
       1481               0.300000E-02
       1482               0.300000E-02
       1483               0.300000E-02
       1484               0.300000E-02
       1485               0.300000E-02
       1486               0.300000E-02
       1487               0.300000E-02
       1488               0.300000E-02
       1489               0.300000E-02
       1490               0.300000E-02
       1491               0.300000E-02
       1492               0.300000E-02
       1493               0.300000E-02
       1494               0.300000E-02
       1495               0.300000E-02
       1496               0.300000E-02
       1497               0.300000E-02
       1498               0.300000E-02
       1499               0.300000E-02
       1500               0.300000E-02
       1501               0.300000E-02
       1502               0.300000E-02
       1503               0.300000E-02
       1504               0.300000E-02
       1505               0.300000E-02
       1506               0.300000E-02
       1507               0.300000E-02
       1508               0.300000E-02
       1509               0.300000E-02
       1510               0.300000E-02
       1511               0.300000E-02
       1512               0.300000E-02
       1513               0.300000E-02
       1514               0.300000E-02
       1515               0.300000E-02
       1516               0.300000E-02
       1517               0.300000E-02
       1518               0.300000E-02
       1519               0.300000E-02
       1520               0.300000E-02
       1521               0.300000E-02
       1522               0.440890E-02
       1523               0.300000E-02
       1524               0.300000E-02
       1525               0.300000E-02
       1526               0.300000E-02
       1527               0.300000E-02
       1528               0.300000E-02
       1529               0.300000E-02
       1530               0.300000E-02
       1531               0.300000E-02
       1532               0.300000E-02
       1533               0.300000E-02
       1534               0.300000E-02
       1535               0.300000E-02
       1536               0.300000E-02
       1537               0.300000E-02
       1538               0.300000E-02
       1539               0.300000E-02
       1540               0.300000E-02
       1541               0.300000E-02
       1542               0.300000E-02
       1543               0.300000E-02
       1544               0.300000E-02
       1545               0.300000E-02
       1546               0.300000E-02
       1547               0.300000E-02
       1548               0.300000E-02
       1549               0.300000E-02
       1550               0.300000E-02
       1551               0.300000E-02
       1552               0.300000E-02
       1553               0.300000E-02
       1554               0.300000E-02
       1555               0.300000E-02
       1556               0.300000E-02
       1557               0.300000E-02
       1558               0.300000E-02
       1559               0.300000E-02
       1560               0.300000E-02
       1561               0.300000E-02
       1562               0.300000E-02
       1563               0.336129E-02
       1564               0.300000E-02
       1565               0.300000E-02
       1566               0.300000E-02
       1567               0.300000E-02
       1568               0.300000E-02
       1569               0.300000E-02
       1570               0.122464E-01
       1571               0.300000E-02
       1572               0.300000E-02
       1573               0.679625E-02
       1574               0.315240E-01
       1575               0.300000E-02
       1576               0.300000E-02
       1577               0.610469E-01
       1578               0.300000E-02
       1579               0.177953E-01
       1580               0.300000E-02
       1581               0.498089E-01
       1582               0.883485E-02
       1583               0.399421E-02
       1584               0.300000E-02
       1585               0.300000E-02
       1586               0.300000E-02
       1587               0.300000E-02
       1588               0.192945E-01
       1589               0.300000E-02
       1590               0.300000E-02
       1591               0.300000E-02
       1592               0.300000E-02
       1593               0.118206E-01
       1594               0.300000E-02
       1595               0.185204E-01
       1596               0.300000E-02
       1597               0.145525E-01
       1598               0.507586E-01
       1599               0.293539E-01
       1600               0.253849E-01
       1601               0.300000E-02
       1602               0.300000E-02
       1603               0.300000E-02
       1604               0.300000E-02
       1605               0.300000E-02
       1606               0.227395E-01
       1607               0.300000E-02
       1608               0.300000E-02
       1609               0.908353E-01
       1610               0.300000E-02
       1611               0.268766E-01
       1612               0.300000E-02
       1613               0.317643E-01
       1614               0.300000E-02
       1615               0.300000E-02
       1616               0.300000E-02
       1617               0.300000E-02
       1618               0.896483E-02
       1619               0.128962E-01
       1620               0.340444E-01
       1621               0.699082E-01
       1622               0.300000E-02
       1623               0.300000E-02
       1624               0.589289E-01
       1625               0.300000E-02
       1626               0.300000E-02
       1627               0.150277E-01
       1628               0.389373E-01
       1629               0.300000E-02
       1630               0.300000E-02
       1631               0.300000E-02
       1632               0.182471E-01
       1633               0.300000E-02
       1634               0.156904E-01
       1635               0.275694E-01
       1636               0.300000E-02
       1637               0.300000E-02
       1638               0.300000E-02
       1639               0.300000E-02
       1640               0.300000E-02
       1641               0.300000E-02
       1642               0.300000E-02
       1643               0.300000E-02
       1644               0.300000E-02
       1645               0.300000E-02
       1646               0.300000E-02
       1647               0.300000E-02
       1648               0.300000E-02
       1649               0.300000E-02
       1650               0.300000E-02
       1651               0.300000E-02
       1652               0.300000E-02
       1653               0.300000E-02
       1654               0.300000E-02
       1655               0.300000E-02
       1656               0.300000E-02
       1657               0.694089E-01
       1658               0.581214E-01
       1659               0.309532E-01
       1660               0.300000E-02
       1661               0.300000E-02
       1662               0.300000E-02
       1663               0.300000E-02
       1664               0.300000E-02
       1665               0.300000E-02
       1666               0.300000E-02
       1667               0.300000E-02
       1668               0.300000E-02
       1669               0.300000E-02
       1670               0.300000E-02
       1671               0.300000E-02
       1672               0.300000E-02
       1673               0.300000E-02
       1674               0.300000E-02
       1675               0.300000E-02
       1676               0.300000E-02
       1677               0.300000E-02
       1678               0.300000E-02
       1679               0.300000E-02
       1680               0.300000E-02
       1681               0.300000E-02
       1682               0.300000E-02
       1683               0.300000E-02
       1684               0.300000E-02
       1685               0.300000E-02
       1686               0.300000E-02
       1687               0.300000E-02
       1688               0.300000E-02
       1689               0.300000E-02
       1690               0.300000E-02
       1691               0.300000E-02
       1692               0.300000E-02
       1693               0.300000E-02
       1694               0.447097E-01
       1695               0.188238E-01
       1696               0.300000E-02
       1697               0.300000E-02
       1698               0.300000E-02
       1699               0.300000E-02
       1700               0.300000E-02
       1701               0.300000E-02
       1702               0.300000E-02
       1703               0.300000E-02
       1704               0.300000E-02
       1705               0.300000E-02
       1706               0.300000E-02
       1707               0.300000E-02
       1708               0.240559E-01
       1709               0.126241E-01
       1710               0.300000E-02
       1711               0.248189E-01
       1712               0.325709E-01
       1713               0.314308E-01
       1714               0.300000E-02
       1715               0.300000E-02
       1716               0.300000E-02
       1717               0.158209E-01
       1718               0.914183E-02
       1719               0.388094E-01
       1720               0.300000E-02
       1721               0.104748E-01
       1722               0.300000E-02
       1723               0.300000E-02
       1724               0.300000E-02
       1725               0.300000E-02
       1726               0.300000E-02
       1727               0.300000E-02
       1728               0.300000E-02
       1729               0.643831E-02
       1730               0.300000E-02
       1731               0.567606E-02
       1732               0.300000E-02
       1733               0.300000E-02
       1734               0.300000E-02
       1735               0.300000E-02
       1736               0.300000E-02
       1737               0.300000E-02
       1738               0.300000E-02
       1739               0.300000E-02
       1740               0.300000E-02
       1741               0.300000E-02
       1742               0.300000E-02
       1743               0.300000E-02
       1744               0.300000E-02
       1745               0.300000E-02
       1746               0.300000E-02
       1747               0.300000E-02
       1748               0.300000E-02
       1749               0.300000E-02
       1750               0.300000E-02
       1751               0.300000E-02
       1752               0.300000E-02
       1753               0.300000E-02
       1754               0.300000E-02
       1755               0.300000E-02
       1756               0.300000E-02
       1757               0.300000E-02
       1758               0.300000E-02
       1759               0.300000E-02
       1760               0.300000E-02
       1761               0.300000E-02
       1762               0.300000E-02
       1763               0.300000E-02
       1764               0.300000E-02
       1765               0.325436E-02
       1766               0.300000E-02
       1767               0.300000E-02
       1768               0.300000E-02
       1769               0.300000E-02
       1770               0.300000E-02
       1771               0.300000E-02
       1772               0.300000E-02
       1773               0.300000E-02
       1774               0.300000E-02
       1775               0.300000E-02
       1776               0.300000E-02
       1777               0.300000E-02
       1778               0.300000E-02
       1779               0.300000E-02
       1780               0.300000E-02
       1781               0.300000E-02
       1782               0.300000E-02
       1783               0.300000E-02
       1784               0.300000E-02
       1785               0.300000E-02
       1786               0.438068E-02
       1787               0.300000E-02
       1788               0.300000E-02
       1789               0.300000E-02
       1790               0.300000E-02
       1791               0.300000E-02
       1792               0.300000E-02
       1793               0.300000E-02
       1794               0.300000E-02
       1795               0.300000E-02
       1796               0.300000E-02
       1797               0.300000E-02
       1798               0.300000E-02
       1799               0.300000E-02
       1800               0.678325E-02
       1801               0.300000E-02
       1802               0.300000E-02
       1803               0.300000E-02
       1804               0.300000E-02
       1805               0.300000E-02
       1806               0.300000E-02
       1807               0.300000E-02
       1808               0.300000E-02
       1809               0.300000E-02
       1810               0.300000E-02
       1811               0.300000E-02
       1812               0.300000E-02
       1813               0.300000E-02
       1814               0.300000E-02
       1815               0.300000E-02
       1816               0.300000E-02
       1817               0.300000E-02
       1818               0.300000E-02
       1819               0.300000E-02
       1820               0.300000E-02
       1821               0.300000E-02
       1822               0.300000E-02
       1823               0.300000E-02
       1824               0.300000E-02
       1825               0.300000E-02
       1826               0.300000E-02
       1827               0.300000E-02
       1828               0.300000E-02
       1829               0.300000E-02
       1830               0.300000E-02
       1831               0.300000E-02
       1832               0.300000E-02
       1833               0.300000E-02
       1834               0.300000E-02
       1835               0.300000E-02
       1836               0.300000E-02
       1837               0.300000E-02
       1838               0.300000E-02
       1839               0.300000E-02
       1840               0.337725E-02
       1841               0.300000E-02
       1842               0.300000E-02
       1843               0.300000E-02
       1844               0.300000E-02
       1845               0.300000E-02
       1846               0.300000E-02
       1847               0.300000E-02
       1848               0.300000E-02
       1849               0.300000E-02
       1850               0.300000E-02
       1851               0.300000E-02
       1852               0.300000E-02
       1853               0.300000E-02
       1854               0.300000E-02
       1855               0.300000E-02
       1856               0.300000E-02
       1857               0.300000E-02
       1858               0.300000E-02
       1859               0.300000E-02
       1860               0.300000E-02
       1861               0.300000E-02
       1862               0.300000E-02
       1863               0.300000E-02
       1864               0.300000E-02
       1865               0.300000E-02
       1866               0.300000E-02
       1867               0.300000E-02
       1868               0.300000E-02
       1869               0.300000E-02
       1870               0.300000E-02
       1871               0.300000E-02
       1872               0.300000E-02
       1873               0.300000E-02
       1874               0.300000E-02
       1875               0.300000E-02
       1876               0.275286E-01
       1877               0.300000E-02
       1878               0.300000E-02
       1879               0.300000E-02
       1880               0.300000E-02
       1881               0.300000E-02
       1882               0.300000E-02
       1883               0.300000E-02
       1884               0.300000E-02
       1885               0.300000E-02
       1886               0.300000E-02
       1887               0.300000E-02
       1888               0.300000E-02
       1889               0.300000E-02
       1890               0.300000E-02
       1891               0.300000E-02
       1892               0.300000E-02
       1893               0.300000E-02
       1894               0.300000E-02
       1895               0.300000E-02
       1896               0.300000E-02
       1897               0.300000E-02
       1898               0.300000E-02
       1899               0.300000E-02
       1900               0.300000E-02
       1901               0.300000E-02
       1902               0.300000E-02
       1903               0.300000E-02
       1904               0.300000E-02
       1905               0.300000E-02
       1906               0.300000E-02
       1907               0.300000E-02
       1908               0.300000E-02
       1909               0.300000E-02
       1910               0.300000E-02
       1911               0.300000E-02
       1912               0.300000E-02
       1913               0.300000E-02
       1914               0.300000E-02
       1915               0.300000E-02
       1916               0.300000E-02
       1917               0.300000E-02
       1918               0.300000E-02
       1919               0.300000E-02
       1920               0.300000E-02
       1921               0.300000E-02
       1922               0.300000E-02
       1923               0.300000E-02
       1924               0.300000E-02
       1925               0.300000E-02
       1926               0.300000E-02
       1927               0.300000E-02
       1928               0.300000E-02
       1929               0.300000E-02
       1930               0.300000E-02
       1931               0.300000E-02
       1932               0.300000E-02
       1933               0.300000E-02
       1934               0.300000E-02
       1935               0.300000E-02
       1936               0.300000E-02
       1937               0.300000E-02
       1938               0.300000E-02
       1939               0.300000E-02
       1940               0.300000E-02
       1941               0.300000E-02
       1942               0.300000E-02
       1943               0.300000E-02
       1944               0.300000E-02
       1945               0.300000E-02
       1946               0.300000E-02
       1947               0.300000E-02
       1948               0.300000E-02
       1949               0.300000E-02
       1950               0.300000E-02
       1951               0.300000E-02
       1952               0.300000E-02
       1953               0.300000E-02
       1954               0.300000E-02
       1955               0.300000E-02
       1956               0.300000E-02
       1957               0.300000E-02
       1958               0.300000E-02
       1959               0.300000E-02
       1960               0.300000E-02
       1961               0.300000E-02
       1962               0.300000E-02
       1963               0.300000E-02
       1964               0.300000E-02
       1965               0.300000E-02
       1966               0.300000E-02
       1967               0.300000E-02
       1968               0.300000E-02
       1969               0.300000E-02
       1970               0.300000E-02
       1971               0.300000E-02
       1972               0.300000E-02
       1973               0.300000E-02
       1974               0.300000E-02
       1975               0.300000E-02
       1976               0.300000E-02
       1977               0.300000E-02
       1978               0.300000E-02
       1979               0.300000E-02
       1980               0.300000E-02
       1981               0.300000E-02
       1982               0.300000E-02
       1983               0.300000E-02
       1984               0.108268E-01
       1985               0.300000E-02
       1986               0.300000E-02
       1987               0.300000E-02
       1988               0.300000E-02
       1989               0.300000E-02
       1990               0.300000E-02
       1991               0.501340E-01
       1992               0.300000E-02
       1993               0.186740E-01
       1994               0.300000E-02
       1995               0.300000E-02
       1996               0.705333E-01
       1997               0.209948E-01
       1998               0.300000E-02
       1999               0.156567E-01
       2000               0.198861E-01
       2001               0.300000E-02
       2002               0.300000E-02
       2003               0.417762E-01
       2004               0.300000E-02
       2005               0.175437E-01
       2006               0.284288E-01
       2007               0.300000E-02
       2008               0.464603E-01
       2009               0.300000E-02
       2010               0.300000E-02
       2011               0.300000E-02
       2012               0.300000E-02
       2013               0.300000E-02
       2014               0.300000E-02
       2015               0.177609E-01
       2016               0.300000E-02
       2017               0.800429E-01
       2018               0.207372E-01
       2019               0.389832E-01
       2020               0.300000E-02
       2021               0.300000E-02
       2022               0.300000E-02
       2023               0.300000E-02
       2024               0.300000E-02
       2025               0.300000E-02
       2026               0.300000E-02
       2027               0.899692E-01
       2028               0.261028E-01
       2029               0.201677    
       2030               0.365451E-02
       2031               0.300000E-02
       2032               0.300000E-02
       2033               0.300000E-02
       2034               0.103121    
       2035               0.458708E-02
       2036               0.300000E-02
       2037               0.185241E-01
       2038               0.111241E-01
       2039               0.816820E-01
       2040               0.101250E-01
       2041               0.620677E-01
       2042               0.300000E-02
       2043               0.300000E-02
       2044               0.300000E-02
       2045               0.300000E-02
       2046               0.300000E-02
       2047               0.300000E-02
       2048               0.300000E-02
       2049               0.300000E-02
       2050               0.300000E-02
       2051               0.300000E-02
       2052               0.300000E-02
       2053               0.294397E-01
       2054               0.300000E-02
       2055               0.300000E-02
       2056               0.300000E-02
       2057               0.300000E-02
       2058               0.300000E-02
       2059               0.300000E-02
       2060               0.300000E-02
       2061               0.300000E-02
       2062               0.300000E-02
       2063               0.300000E-02
       2064               0.300000E-02
       2065               0.300000E-02
       2066               0.300000E-02
       2067               0.300000E-02
       2068               0.300000E-02
       2069               0.300000E-02
       2070               0.300000E-02
       2071               0.300000E-02
       2072               0.300000E-02
       2073               0.300000E-02
       2074               0.300000E-02
       2075               0.300000E-02
       2076               0.300000E-02
       2077               0.300000E-02
       2078               0.300000E-02
       2079               0.300000E-02
       2080               0.300000E-02
       2081               0.300000E-02
       2082               0.300000E-02
       2083               0.300000E-02
       2084               0.300000E-02
       2085               0.300000E-02
       2086               0.300000E-02
       2087               0.300000E-02
       2088               0.300000E-02
       2089               0.300000E-02
       2090               0.300000E-02
       2091               0.300000E-02
       2092               0.300000E-02
       2093               0.300000E-02
       2094               0.300000E-02
       2095               0.300000E-02
       2096               0.300000E-02
       2097               0.300000E-02
       2098               0.300000E-02
       2099               0.300000E-02
       2100               0.300000E-02
       2101               0.300000E-02
       2102               0.300000E-02
       2103               0.300000E-02
       2104               0.300000E-02
       2105               0.300000E-02
       2106               0.300000E-02
       2107               0.300000E-02
       2108               0.300000E-02
       2109               0.300000E-02
       2110               0.300000E-02
       2111               0.300000E-02
       2112               0.300000E-02
       2113               0.300000E-02
       2114               0.167758E-01
       2115               0.435222E-02
       2116               0.300000E-02
       2117               0.300000E-02
       2118               0.300000E-02
       2119               0.300000E-02
       2120               0.300000E-02
       2121               0.300000E-02
       2122               0.300000E-02
       2123               0.350726E-02
       2124               0.100129E-01
       2125               0.131276E-01
       2126               0.300000E-02
       2127               0.300000E-02
       2128               0.300000E-02
       2129               0.300000E-02
       2130               0.300000E-02
       2131               0.300000E-02
       2132               0.300000E-02
       2133               0.300000E-02
       2134               0.300000E-02
       2135               0.157249E-01
       2136               0.300000E-02
       2137               0.300000E-02
       2138               0.692304E-02
       2139               0.300000E-02
       2140               0.300000E-02
       2141               0.229729E-01
       2142               0.300000E-02
       2143               0.300000E-02
       2144               0.300000E-02
       2145               0.300000E-02
       2146               0.300000E-02
       2147               0.300000E-02
       2148               0.300000E-02
       2149               0.300000E-02
       2150               0.300000E-02
       2151               0.300000E-02
       2152               0.300000E-02
       2153               0.300000E-02
       2154               0.300000E-02
       2155               0.300000E-02
       2156               0.300000E-02
       2157               0.300000E-02
       2158               0.300000E-02
       2159               0.300000E-02
       2160               0.300000E-02
       2161               0.300000E-02
       2162               0.300000E-02
       2163               0.300000E-02
       2164               0.300000E-02
       2165               0.300000E-02
       2166               0.300000E-02
       2167               0.300000E-02
       2168               0.300000E-02
       2169               0.300000E-02
       2170               0.300000E-02
       2171               0.300000E-02
       2172               0.300000E-02
       2173               0.300000E-02
       2174               0.300000E-02
       2175               0.300000E-02
       2176               0.300000E-02
       2177               0.300000E-02
       2178               0.300000E-02
       2179               0.300000E-02
       2180               0.300000E-02
       2181               0.300000E-02
       2182               0.300000E-02
       2183               0.300000E-02
       2184               0.300000E-02
       2185               0.300000E-02
       2186               0.128197E-01
       2187               0.300000E-02
       2188               0.300000E-02
       2189               0.300000E-02
       2190               0.121540E-01
       2191               0.300000E-02
       2192               0.300000E-02
       2193               0.300000E-02
       2194               0.300000E-02
       2195               0.300000E-02
       2196               0.300000E-02
       2197               0.300000E-02
       2198               0.300000E-02
       2199               0.300000E-02
       2200               0.300000E-02
       2201               0.300000E-02
       2202               0.300000E-02
       2203               0.300000E-02
       2204               0.300000E-02
       2205               0.300000E-02
       2206               0.300000E-02
       2207               0.300000E-02
       2208               0.300000E-02
       2209               0.300000E-02
       2210               0.419615E-02
       2211               0.300000E-02
       2212               0.300000E-02
       2213               0.300000E-02
       2214               0.300000E-02
       2215               0.300000E-02
       2216               0.300000E-02
       2217               0.300000E-02
       2218               0.300000E-02
       2219               0.300000E-02
       2220               0.300000E-02
       2221               0.300000E-02
       2222               0.300000E-02
       2223               0.300000E-02
       2224               0.300000E-02
       2225               0.300000E-02
       2226               0.300000E-02
       2227               0.124822E-01
       2228               0.756826E-02
       2229               0.694371E-02
       2230               0.300000E-02
       2231               0.300000E-02
       2232               0.116431E-01
       2233               0.300000E-02
       2234               0.300000E-02
       2235               0.300000E-02
       2236               0.300000E-02
       2237               0.300000E-02
       2238               0.300000E-02
       2239               0.300000E-02
       2240               0.300000E-02
       2241               0.300000E-02
       2242               0.300000E-02
       2243               0.300000E-02
       2244               0.300000E-02
       2245               0.300000E-02
       2246               0.300000E-02
       2247               0.300000E-02
       2248               0.300000E-02
       2249               0.300000E-02
       2250               0.300000E-02
       2251               0.300000E-02
       2252               0.300000E-02
       2253               0.350268E-02
       2254               0.300000E-02
       2255               0.300000E-02
       2256               0.300000E-02
       2257               0.300000E-02
       2258               0.300000E-02
       2259               0.300000E-02
       2260               0.300000E-02
       2261               0.300000E-02
       2262               0.300000E-02
       2263               0.300000E-02
       2264               0.300000E-02
       2265               0.300000E-02
       2266               0.300000E-02
       2267               0.103001E-01
       2268               0.928878E-02
       2269               0.300000E-02
       2270               0.300000E-02
       2271               0.300000E-02
       2272               0.300000E-02
       2273               0.300000E-02
       2274               0.300000E-02
       2275               0.300000E-02
       2276               0.300000E-02
       2277               0.300000E-02
       2278               0.300000E-02
       2279               0.300000E-02
       2280               0.300000E-02
       2281               0.300000E-02
       2282               0.300000E-02
       2283               0.300000E-02
       2284               0.300000E-02
       2285               0.387088E-01
       2286               0.300000E-02
       2287               0.300000E-02
       2288               0.300000E-02
       2289               0.300000E-02
       2290               0.300000E-02
       2291               0.300000E-02
       2292               0.300000E-02
       2293               0.300000E-02
       2294               0.300000E-02
       2295               0.300000E-02
       2296               0.300000E-02
       2297               0.300000E-02
       2298               0.300000E-02
       2299               0.300000E-02
       2300               0.300000E-02
       2301               0.300000E-02
       2302               0.300000E-02
       2303               0.300000E-02
       2304               0.300000E-02
       2305               0.300000E-02
       2306               0.300000E-02
       2307               0.300000E-02
       2308               0.300000E-02
       2309               0.300000E-02
       2310               0.300000E-02
       2311               0.300000E-02
       2312               0.300000E-02
       2313               0.300000E-02
       2314               0.300000E-02
       2315               0.300000E-02
       2316               0.300000E-02
       2317               0.300000E-02
       2318               0.258031E-01
       2319               0.300000E-02
       2320               0.300000E-02
       2321               0.300000E-02
       2322               0.300000E-02
       2323               0.134687E-01
       2324               0.300000E-02
       2325               0.300000E-02
       2326               0.300000E-02
       2327               0.300000E-02
       2328               0.300000E-02
       2329               0.300000E-02
       2330               0.300000E-02
       2331               0.300000E-02
       2332               0.300000E-02
       2333               0.300000E-02
       2334               0.300000E-02
       2335               0.300000E-02
       2336               0.601529E-02
       2337               0.732667E-02
       2338               0.300000E-02
       2339               0.300000E-02
       2340               0.300000E-02
       2341               0.300000E-02
       2342               0.300000E-02
       2343               0.300000E-02
       2344               0.300000E-02
       2345               0.300000E-02
       2346               0.300000E-02
       2347               0.300000E-02
       2348               0.300000E-02
       2349               0.300000E-02
       2350               0.300000E-02
       2351               0.300000E-02
       2352               0.252233E-01
       2353               0.300000E-02
       2354               0.300000E-02
       2355               0.300000E-02
       2356               0.300000E-02
       2357               0.300000E-02
       2358               0.300000E-02
       2359               0.300000E-02
       2360               0.300000E-02
       2361               0.300000E-02
       2362               0.300000E-02
       2363               0.300000E-02
       2364               0.300000E-02
       2365               0.300000E-02
       2366               0.300000E-02
       2367               0.300000E-02
       2368               0.300000E-02
       2369               0.300000E-02
       2370               0.300000E-02
       2371               0.300000E-02
       2372               0.300000E-02
       2373               0.300000E-02
       2374               0.300000E-02
       2375               0.300000E-02
       2376               0.300000E-02
       2377               0.300000E-02
       2378               0.300000E-02
       2379               0.300000E-02
       2380               0.300000E-02
       2381               0.704211E-02
       2382               0.300000E-02
       2383               0.300000E-02
       2384               0.300000E-02
       2385               0.300000E-02
       2386               0.411863E-02
       2387               0.300000E-02
       2388               0.300000E-02
       2389               0.300000E-02
       2390               0.713348E-02
       2391               0.300000E-02
       2392               0.300000E-02
       2393               0.300000E-02
       2394               0.624752E-02
       2395               0.300000E-02
       2396               0.300000E-02
       2397               0.300000E-02
       2398               0.300000E-02
       2399               0.300000E-02
       2400               0.300000E-02
       2401               0.300000E-02
       2402               0.300000E-02
       2403               0.300000E-02
       2404               0.300000E-02
       2405               0.300000E-02
       2406               0.300000E-02
       2407               0.300000E-02
       2408               0.300000E-02
       2409               0.300000E-02
       2410               0.300000E-02
       2411               0.300000E-02
       2412               0.300000E-02
       2413               0.300000E-02
       2414               0.382127E-02
       2415               0.123037E-01
       2416               0.282498E-01
       2417               0.317070E-01
       2418               0.185733E-01
       2419               0.300000E-02
       2420               0.100774E-01
       2421               0.283434E-01
       2422               0.300000E-02
       2423               0.300000E-02
       2424               0.300000E-02
       2425               0.201081E-01
       2426               0.300000E-02
       2427               0.300000E-02
       2428               0.300000E-02
       2429               0.300000E-02
       2430               0.300000E-02
       2431               0.392755E-02
       2432               0.291571E-01
       2433               0.300000E-02
       2434               0.300000E-02
       2435               0.300000E-02
       2436               0.300000E-02
       2437               0.670231E-02
       2438               0.300000E-02
       2439               0.238112E-01
       2440               0.142650E-01
       2441               0.685730E-01
       2442               0.255316E-01
       2443               0.416075E-01
       2444               0.300000E-02
       2445               0.300000E-02
       2446               0.354672E-01
       2447               0.402992E-01
       2448               0.300000E-02
       2449               0.300000E-02
       2450               0.300000E-02
       2451               0.300000E-02
       2452               0.300000E-02
       2453               0.300000E-02
       2454               0.300000E-02
       2455               0.300000E-02
       2456               0.300000E-02
       2457               0.300000E-02
       2458               0.300000E-02
       2459               0.300000E-02
       2460               0.300000E-02
       2461               0.300000E-02
       2462               0.300000E-02
       2463               0.300000E-02
       2464               0.300000E-02
       2465               0.300000E-02
       2466               0.300000E-02
       2467               0.300000E-02
       2468               0.300000E-02
       2469               0.300000E-02
       2470               0.300000E-02
       2471               0.300000E-02
       2472               0.300000E-02
       2473               0.300000E-02
       2474               0.300000E-02
       2475               0.300000E-02
       2476               0.300000E-02
       2477               0.300000E-02
       2478               0.300000E-02
       2479               0.372483E-01
       2480               0.300000E-02
       2481               0.300000E-02
       2482               0.300000E-02
       2483               0.300000E-02
       2484               0.300000E-02
       2485               0.300000E-02
       2486               0.300000E-02
       2487               0.300000E-02
       2488               0.300000E-02
       2489               0.300000E-02
       2490               0.300000E-02
       2491               0.300000E-02
       2492               0.300000E-02
       2493               0.300000E-02
       2494               0.300000E-02
       2495               0.300000E-02
       2496               0.300000E-02
       2497               0.300000E-02
       2498               0.300000E-02
       2499               0.300000E-02
       2500               0.300000E-02
       2501               0.300000E-02
       2502               0.300000E-02
       2503               0.300000E-02
       2504               0.636722E-02
       2505               0.300000E-02
       2506               0.300000E-02
       2507               0.300000E-02
       2508               0.300000E-02
       2509               0.300000E-02
       2510               0.300000E-02
       2511               0.300000E-02
       2512               0.300000E-02
       2513               0.300000E-02
       2514               0.300000E-02
       2515               0.300000E-02
       2516               0.300000E-02
       2517               0.300000E-02
       2518               0.300000E-02
       2519               0.300000E-02
       2520               0.300000E-02
       2521               0.300000E-02
       2522               0.300000E-02
       2523               0.300000E-02
       2524               0.300000E-02
       2525               0.300000E-02
       2526               0.300000E-02
       2527               0.300000E-02
       2528               0.300000E-02
       2529               0.300000E-02
       2530               0.300000E-02
       2531               0.300000E-02
       2532               0.300000E-02
       2533               0.300000E-02
       2534               0.300000E-02
       2535               0.300000E-02
       2536               0.300000E-02
       2537               0.300000E-02
       2538               0.300000E-02
       2539               0.300000E-02
       2540               0.300000E-02
       2541               0.300000E-02
       2542               0.300000E-02
       2543               0.300000E-02
       2544               0.300000E-02
       2545               0.300000E-02
       2546               0.300000E-02
       2547               0.300000E-02
       2548               0.136426E-01
       2549               0.300000E-02
       2550               0.300000E-02
       2551               0.300000E-02
       2552               0.300000E-02
       2553               0.300000E-02
       2554               0.300000E-02
       2555               0.300000E-02
       2556               0.300000E-02
       2557               0.300000E-02
       2558               0.300000E-02
       2559               0.300000E-02
       2560               0.300000E-02
       2561               0.300000E-02
       2562               0.300000E-02
       2563               0.300000E-02
       2564               0.300000E-02
       2565               0.300000E-02
       2566               0.300000E-02
       2567               0.300000E-02
       2568               0.300000E-02
       2569               0.300000E-02
       2570               0.300000E-02
       2571               0.300000E-02
       2572               0.300000E-02
       2573               0.300000E-02
       2574               0.300000E-02
       2575               0.300000E-02
       2576               0.300000E-02
       2577               0.300000E-02
       2578               0.300000E-02
       2579               0.300000E-02
       2580               0.300000E-02
       2581               0.300000E-02
       2582               0.300000E-02
       2583               0.300000E-02
       2584               0.300000E-02
       2585               0.300000E-02
       2586               0.300000E-02
       2587               0.300000E-02
       2588               0.300000E-02
       2589               0.300000E-02
       2590               0.300000E-02
       2591               0.300000E-02
       2592               0.300000E-02
       2593               0.300000E-02
       2594               0.300000E-02
       2595               0.300000E-02
       2596               0.300000E-02
       2597               0.300000E-02
       2598               0.300000E-02
       2599               0.300000E-02
       2600               0.300000E-02
       2601               0.300000E-02
       2602               0.300000E-02
       2603               0.300000E-02
       2604               0.300000E-02
       2605               0.300000E-02
       2606               0.300000E-02
       2607               0.300000E-02
       2608               0.300000E-02
       2609               0.300000E-02
       2610               0.300000E-02
       2611               0.300000E-02
       2612               0.300000E-02
       2613               0.300000E-02
       2614               0.300000E-02
       2615               0.300000E-02
       2616               0.300000E-02
       2617               0.300000E-02
       2618               0.300000E-02
       2619               0.300000E-02
       2620               0.300000E-02
       2621               0.300000E-02
       2622               0.300000E-02
       2623               0.300000E-02
       2624               0.300000E-02
       2625               0.300000E-02
       2626               0.300000E-02
       2627               0.300000E-02
       2628               0.300000E-02
       2629               0.300000E-02
       2630               0.300000E-02
       2631               0.300000E-02
       2632               0.300000E-02
       2633               0.300000E-02
       2634               0.300000E-02
       2635               0.300000E-02
       2636               0.300000E-02
       2637               0.300000E-02
       2638               0.300000E-02
       2639               0.300000E-02
       2640               0.300000E-02
       2641               0.273938E-01
       2642               0.300000E-02
       2643               0.300000E-02
       2644               0.300000E-02
       2645               0.300000E-02
       2646               0.300000E-02
       2647               0.300000E-02
       2648               0.300000E-02
       2649               0.300000E-02
       2650               0.300000E-02
       2651               0.300000E-02
       2652               0.300000E-02
       2653               0.300000E-02
       2654               0.300000E-02
       2655               0.300000E-02
       2656               0.300000E-02
       2657               0.300000E-02
       2658               0.300000E-02
       2659               0.300000E-02
       2660               0.300000E-02
       2661               0.300000E-02
       2662               0.300000E-02
       2663               0.300000E-02
       2664               0.300000E-02
       2665               0.513329E-01
       2666               0.300000E-02
       2667               0.300000E-02
       2668               0.382177E-02
       2669               0.300000E-02
       2670               0.300000E-02
       2671               0.300000E-02
       2672               0.300000E-02
       2673               0.300000E-02
       2674               0.300000E-02
       2675               0.300000E-02
       2676               0.300000E-02
       2677               0.300000E-02
       2678               0.300000E-02
       2679               0.300000E-02
       2680               0.300000E-02
       2681               0.269962E-01
       2682               0.193852E-01
       2683               0.300000E-02
       2684               0.173544E-01
       2685               0.300000E-02
       2686               0.203883E-01
       2687               0.300000E-02
       2688               0.181266E-01
       2689               0.300000E-02
       2690               0.185578E-01
       2691               0.300000E-02
       2692               0.300000E-02
       2693               0.414813E-01
       2694               0.331860E-01
       2695               0.300000E-02
       2696               0.300000E-02
       2697               0.300000E-02
       2698               0.300000E-02
       2699               0.300000E-02
       2700               0.300000E-02
       2701               0.300000E-02
       2702               0.300000E-02
       2703               0.300000E-02
       2704               0.300000E-02
       2705               0.300000E-02
       2706               0.300000E-02
       2707               0.197441E-01
       2708               0.285945E-01
       2709               0.881753E-02
       2710               0.592953E-01
       2711               0.300000E-02
       2712               0.848689E-01
       2713               0.300000E-02
       2714               0.371098E-01
       2715               0.353095E-01
       2716               0.300000E-02
       2717               0.300000E-02
       2718               0.119000E-01
       2719               0.117596E-01
       2720               0.848781E-01
       2721               0.132122E-01
       2722               0.300000E-02
       2723               0.264038E-01
       2724               0.202252E-01
       2725               0.300000E-02
       2726               0.300000E-02
       2727               0.300000E-02
       2728               0.211549E-01
       2729               0.300000E-02
       2730               0.173555E-01
       2731               0.300000E-02
       2732               0.238777E-01
       2733               0.454342E-01
       2734               0.180849E-01
       2735               0.181812E-01
       2736               0.137624E-01
       2737               0.300000E-02
       2738               0.300000E-02
       2739               0.455561E-01
       2740               0.300000E-02
       2741               0.155290E-01
       2742               0.619058E-01
       2743               0.300000E-02
       2744               0.300000E-02
       2745               0.300000E-02
       2746               0.300000E-02
       2747               0.300000E-02
       2748               0.300000E-02
       2749               0.300000E-02
       2750               0.300000E-02
       2751               0.300000E-02
       2752               0.300000E-02
       2753               0.300000E-02
       2754               0.300000E-02
       2755               0.300000E-02
       2756               0.300000E-02
       2757               0.300000E-02
       2758               0.300000E-02
       2759               0.300000E-02
       2760               0.300000E-02
       2761               0.300000E-02
       2762               0.300000E-02
       2763               0.300000E-02
       2764               0.300000E-02
       2765               0.300000E-02
       2766               0.300000E-02
       2767               0.300000E-02
       2768               0.300000E-02
       2769               0.300000E-02
       2770               0.300000E-02
       2771               0.300000E-02
       2772               0.300000E-02
       2773               0.300000E-02
       2774               0.300000E-02
       2775               0.300000E-02
       2776               0.300000E-02
       2777               0.300000E-02
       2778               0.300000E-02
       2779               0.300000E-02
       2780               0.300000E-02
       2781               0.300000E-02
       2782               0.300000E-02
       2783               0.300000E-02
       2784               0.300000E-02
       2785               0.300000E-02
       2786               0.300000E-02
       2787               0.300000E-02
       2788               0.300000E-02
       2789               0.300000E-02
       2790               0.300000E-02
       2791               0.300000E-02
       2792               0.300000E-02
       2793               0.300000E-02
       2794               0.300000E-02
       2795               0.300000E-02
       2796               0.300000E-02
       2797               0.300000E-02
       2798               0.300000E-02
       2799               0.300000E-02
       2800               0.300000E-02
       2801               0.300000E-02
       2802               0.300000E-02
       2803               0.300000E-02
       2804               0.300000E-02
       2805               0.300000E-02
       2806               0.300000E-02
       2807               0.300000E-02
       2808               0.300000E-02
       2809               0.300000E-02
       2810               0.300000E-02
       2811               0.300000E-02
       2812               0.300000E-02
       2813               0.300000E-02
       2814               0.300000E-02
       2815               0.300000E-02
       2816               0.300000E-02
       2817               0.300000E-02
       2818               0.300000E-02
       2819               0.300000E-02
       2820               0.300000E-02
       2821               0.300000E-02
       2822               0.300000E-02
       2823               0.300000E-02
       2824               0.300000E-02
       2825               0.300000E-02
       2826               0.300000E-02
       2827               0.300000E-02
       2828               0.300000E-02
       2829               0.300000E-02
       2830               0.300000E-02
       2831               0.300000E-02
       2832               0.300000E-02
       2833               0.300000E-02
       2834               0.300000E-02
       2835               0.300000E-02
       2836               0.300000E-02
       2837               0.300000E-02
       2838               0.300000E-02
       2839               0.300000E-02
       2840               0.300000E-02
       2841               0.300000E-02
       2842               0.300000E-02
       2843               0.300000E-02
       2844               0.300000E-02
       2845               0.300000E-02
       2846               0.300000E-02
       2847               0.300000E-02
       2848               0.300000E-02
       2849               0.300000E-02
       2850               0.300000E-02
       2851               0.300000E-02
       2852               0.300000E-02
       2853               0.300000E-02
       2854               0.300000E-02
       2855               0.300000E-02
       2856               0.300000E-02
       2857               0.300000E-02
       2858               0.300000E-02
       2859               0.300000E-02
       2860               0.300000E-02
       2861               0.300000E-02
       2862               0.300000E-02
       2863               0.300000E-02
       2864               0.300000E-02
       2865               0.300000E-02
       2866               0.300000E-02
       2867               0.300000E-02
       2868               0.300000E-02
       2869               0.300000E-02
       2870               0.300000E-02
       2871               0.300000E-02
       2872               0.300000E-02
       2873               0.300000E-02
       2874               0.300000E-02
       2875               0.300000E-02
       2876               0.300000E-02
       2877               0.300000E-02
       2878               0.300000E-02
       2879               0.300000E-02
       2880               0.300000E-02
       2881               0.300000E-02
       2882               0.300000E-02
       2883               0.300000E-02
       2884               0.300000E-02
       2885               0.300000E-02
       2886               0.300000E-02
       2887               0.300000E-02
       2888               0.300000E-02
       2889               0.300000E-02
       2890               0.300000E-02
       2891               0.300000E-02
       2892               0.300000E-02
       2893               0.300000E-02
       2894               0.300000E-02
       2895               0.300000E-02
       2896               0.300000E-02
       2897               0.300000E-02
       2898               0.300000E-02
       2899               0.300000E-02
       2900               0.300000E-02
       2901               0.300000E-02
       2902               0.300000E-02
       2903               0.300000E-02
       2904               0.300000E-02
       2905               0.300000E-02
       2906               0.300000E-02
       2907               0.300000E-02
       2908               0.300000E-02
       2909               0.300000E-02
       2910               0.300000E-02
       2911               0.300000E-02
       2912               0.365425E-02
       2913               0.300000E-02
       2914               0.300000E-02
       2915               0.300000E-02
       2916               0.300000E-02
       2917               0.300000E-02
       2918               0.300000E-02
       2919               0.300000E-02
       2920               0.300000E-02
       2921               0.300000E-02
       2922               0.300000E-02
       2923               0.300000E-02
       2924               0.300000E-02
       2925               0.300000E-02
       2926               0.300000E-02
       2927               0.300000E-02
       2928               0.300000E-02
       2929               0.300000E-02
       2930               0.300000E-02
       2931               0.300000E-02
       2932               0.300000E-02
       2933               0.300000E-02
       2934               0.300000E-02
       2935               0.300000E-02
       2936               0.300000E-02
       2937               0.300000E-02
       2938               0.300000E-02
       2939               0.300000E-02
       2940               0.132832E-01
       2941               0.300000E-02
       2942               0.300000E-02
       2943               0.972878E-02
       2944               0.764202E-01
       2945               0.300000E-02
       2946               0.259611E-01
       2947               0.300000E-02
       2948               0.300000E-02
       2949               0.186898E-01
       2950               0.238606E-01
       2951               0.300000E-02
       2952               0.300000E-02
       2953               0.300000E-02
       2954               0.300000E-02
       2955               0.263072E-01
       2956               0.300000E-02
       2957               0.180944E-01
       2958               0.300000E-02
       2959               0.168671E-01
       2960               0.143812E-01
       2961               0.300000E-02
       2962               0.300000E-02
       2963               0.450721E-01
       2964               0.533682E-01
       2965               0.217538E-01
       2966               0.300000E-02
       2967               0.593433E-01
       2968               0.404338E-01
       2969               0.300000E-02
       2970               0.300000E-02
       2971               0.300000E-02
       2972               0.194569E-01
       2973               0.300000E-02
       2974               0.348598E-01
       2975               0.300000E-02
       2976               0.205225E-01
       2977               0.300000E-02
       2978               0.300000E-02
       2979               0.300000E-02
       2980               0.300000E-02
       2981               0.300000E-02
       2982               0.300000E-02
       2983               0.300000E-02
       2984               0.300000E-02
       2985               0.300000E-02
       2986               0.300000E-02
       2987               0.200958E-01
       2988               0.254084E-01
       2989               0.562600E-01
       2990               0.300000E-02
       2991               0.300000E-02
       2992               0.300000E-02
       2993               0.800194E-01
       2994               0.161836E-01
       2995               0.512754E-01
       2996               0.300000E-02
       2997               0.117978E-01
       2998               0.300000E-02
       2999               0.102442E-01
       3000               0.330826E-01
       3001               0.359046E-01
       3002               0.300000E-02
       3003               0.300000E-02
       3004               0.300000E-02
       3005               0.300000E-02
       3006               0.300000E-02
       3007               0.300000E-02
       3008               0.300000E-02
       3009               0.300000E-02
       3010               0.300000E-02
       3011               0.300000E-02
       3012               0.300000E-02
       3013               0.300000E-02
       3014               0.300000E-02
       3015               0.300000E-02
       3016               0.300000E-02
       3017               0.300000E-02
       3018               0.111374E-01
       3019               0.150561E-01
       3020               0.631352E-02
       3021               0.300000E-02
       3022               0.300000E-02
       3023               0.300000E-02
       3024               0.300000E-02
       3025               0.300000E-02
       3026               0.127969E-01
       3027               0.127375E-01
       3028               0.300000E-02
       3029               0.164708E-01
       3030               0.300000E-02
       3031               0.300000E-02
       3032               0.106794E-01
       3033               0.300000E-02
       3034               0.300000E-02
       3035               0.231402E-01
       3036               0.300000E-02
       3037               0.300000E-02
       3038               0.300000E-02
       3039               0.118355E-01
       3040               0.300000E-02
       3041               0.300000E-02
       3042               0.177419E-01
       3043               0.300000E-02
       3044               0.957428E-02
       3045               0.131488E-01
       3046               0.166180E-01
       3047               0.158345E-01
       3048               0.300000E-02
       3049               0.300000E-02
       3050               0.300000E-02
       3051               0.300000E-02
       3052               0.300000E-02
       3053               0.300000E-02
       3054               0.300000E-02
       3055               0.300000E-02
       3056               0.300000E-02
       3057               0.300000E-02
       3058               0.300000E-02
       3059               0.300000E-02
       3060               0.300000E-02
       3061               0.300000E-02
       3062               0.300000E-02
       3063               0.300000E-02
       3064               0.300000E-02
       3065               0.300000E-02
       3066               0.300000E-02
       3067               0.300000E-02
       3068               0.300000E-02
       3069               0.300000E-02
       3070               0.300000E-02
       3071               0.300000E-02
       3072               0.300000E-02
       3073               0.300000E-02
       3074               0.300000E-02
       3075               0.300000E-02
       3076               0.300000E-02
       3077               0.300000E-02
       3078               0.300000E-02
       3079               0.300000E-02
       3080               0.300000E-02
       3081               0.300000E-02
       3082               0.579761E-02
       3083               0.300000E-02
       3084               0.300000E-02
       3085               0.300000E-02
       3086               0.300000E-02
       3087               0.300000E-02
       3088               0.300000E-02
       3089               0.300000E-02
       3090               0.300000E-02
       3091               0.300000E-02
       3092               0.300000E-02
       3093               0.300000E-02
       3094               0.300000E-02
       3095               0.300000E-02
       3096               0.300000E-02
       3097               0.884132E-02
       3098               0.300000E-02
       3099               0.179220E-01
       3100               0.143802E-01
       3101               0.300000E-02
       3102               0.300000E-02
       3103               0.300000E-02
       3104               0.300000E-02
       3105               0.300000E-02
       3106               0.300000E-02
       3107               0.300000E-02
       3108               0.300000E-02
       3109               0.300000E-02
       3110               0.300000E-02
       3111               0.300000E-02
       3112               0.300000E-02
       3113               0.300000E-02
       3114               0.300000E-02
       3115               0.300000E-02
       3116               0.300000E-02
       3117               0.300000E-02
       3118               0.300000E-02
       3119               0.300000E-02
       3120               0.300000E-02
       3121               0.300000E-02
       3122               0.300000E-02
       3123               0.300000E-02
       3124               0.300000E-02
       3125               0.300000E-02
       3126               0.300000E-02
       3127               0.300000E-02
       3128               0.300000E-02
       3129               0.300000E-02
       3130               0.300000E-02
       3131               0.300000E-02
       3132               0.300000E-02
       3133               0.300000E-02
       3134               0.300000E-02
       3135               0.300000E-02
       3136               0.447261E-02
       3137               0.300000E-02
       3138               0.300000E-02
       3139               0.300000E-02
       3140               0.300000E-02
       3141               0.300000E-02
       3142               0.300000E-02
       3143               0.300000E-02
       3144               0.300000E-02
       3145               0.300000E-02
       3146               0.300000E-02
       3147               0.300000E-02
       3148               0.300000E-02
       3149               0.300000E-02
       3150               0.300000E-02
       3151               0.300000E-02
       3152               0.300000E-02
       3153               0.300000E-02
       3154               0.300000E-02
       3155               0.300000E-02
       3156               0.300000E-02
       3157               0.300000E-02
       3158               0.300000E-02
       3159               0.300000E-02
       3160               0.300000E-02
       3161               0.300000E-02
       3162               0.300000E-02
       3163               0.300000E-02
       3164               0.300000E-02
       3165               0.300000E-02
       3166               0.300000E-02
       3167               0.300000E-02
       3168               0.300000E-02
       3169               0.300000E-02
       3170               0.300000E-02
       3171               0.300000E-02
       3172               0.300000E-02
       3173               0.300000E-02
       3174               0.300000E-02
       3175               0.300000E-02
       3176               0.300000E-02
       3177               0.300000E-02
       3178               0.300000E-02
       3179               0.300000E-02
       3180               0.300000E-02
       3181               0.300000E-02
       3182               0.300000E-02
       3183               0.300000E-02
       3184               0.300000E-02
       3185               0.300000E-02
       3186               0.300000E-02
       3187               0.300000E-02
       3188               0.300000E-02
       3189               0.300000E-02
       3190               0.300000E-02
       3191               0.300000E-02
       3192               0.249796E-01
       3193               0.300000E-02
       3194               0.300000E-02
       3195               0.300000E-02
       3196               0.300000E-02
       3197               0.162367E-01
       3198               0.300000E-02
       3199               0.300000E-02
       3200               0.300000E-02
       3201               0.300000E-02
       3202               0.300000E-02
       3203               0.300000E-02
       3204               0.300000E-02
       3205               0.300000E-02
       3206               0.300000E-02
       3207               0.300000E-02
       3208               0.300000E-02
       3209               0.939270E-02
       3210               0.300000E-02
       3211               0.300000E-02
       3212               0.300000E-02
       3213               0.300000E-02
       3214               0.300000E-02
       3215               0.300000E-02
       3216               0.300000E-02
       3217               0.300000E-02
       3218               0.300000E-02
       3219               0.300000E-02
       3220               0.300000E-02
       3221               0.300000E-02
       3222               0.300000E-02
       3223               0.300000E-02
       3224               0.300000E-02
       3225               0.300000E-02
       3226               0.300000E-02
       3227               0.300000E-02
       3228               0.300000E-02
       3229               0.300000E-02
       3230               0.300000E-02
       3231               0.442176E-02
       3232               0.300000E-02
       3233               0.300000E-02
       3234               0.300000E-02
       3235               0.300000E-02
       3236               0.300000E-02
       3237               0.300000E-02
       3238               0.300000E-02
       3239               0.300000E-02
       3240               0.300000E-02
       3241               0.300000E-02
       3242               0.300000E-02
       3243               0.300000E-02
       3244               0.300000E-02
       3245               0.300000E-02
       3246               0.300000E-02
       3247               0.300000E-02
       3248               0.300000E-02
       3249               0.300000E-02
       3250               0.300000E-02
       3251               0.300000E-02
       3252               0.300000E-02
       3253               0.300000E-02
       3254               0.300000E-02
       3255               0.300000E-02
       3256               0.300000E-02
       3257               0.300000E-02
       3258               0.300000E-02
       3259               0.300000E-02
       3260               0.300000E-02
       3261               0.300000E-02
       3262               0.300000E-02
       3263               0.300000E-02
       3264               0.300000E-02
       3265               0.300000E-02
       3266               0.300000E-02
       3267               0.300000E-02
       3268               0.300000E-02
       3269               0.300000E-02
       3270               0.300000E-02
       3271               0.300000E-02
       3272               0.300000E-02
       3273               0.300000E-02
       3274               0.300000E-02
       3275               0.300000E-02
       3276               0.300000E-02
       3277               0.300000E-02
       3278               0.300000E-02
       3279               0.300000E-02
       3280               0.300000E-02
       3281               0.300000E-02
       3282               0.300000E-02
       3283               0.300000E-02
       3284               0.300000E-02
       3285               0.300000E-02
       3286               0.300000E-02
       3287               0.300000E-02
       3288               0.300000E-02
       3289               0.300000E-02
       3290               0.300000E-02
       3291               0.300000E-02
       3292               0.300000E-02
       3293               0.300000E-02
       3294               0.300000E-02
       3295               0.300000E-02
       3296               0.300000E-02
       3297               0.300000E-02
       3298               0.300000E-02
       3299               0.300000E-02
       3300               0.300000E-02
       3301               0.300000E-02
       3302               0.300000E-02
       3303               0.300000E-02
       3304               0.300000E-02
       3305               0.300000E-02
       3306               0.300000E-02
       3307               0.300000E-02
       3308               0.300000E-02
       3309               0.300000E-02
       3310               0.300000E-02
       3311               0.300000E-02
       3312               0.300000E-02
       3313               0.300000E-02
       3314               0.300000E-02
       3315               0.300000E-02
       3316               0.744336E-01
       3317               0.300000E-02
       3318               0.121851E-01
       3319               0.721130E-02
       3320               0.300000E-02
       3321               0.161438E-01
       3322               0.300000E-02
       3323               0.637479E-02
       3324               0.300000E-02
       3325               0.300000E-02
       3326               0.323673E-01
       3327               0.300000E-02
       3328               0.300000E-02
       3329               0.300000E-02
       3330               0.547410E-02
       3331               0.300000E-02
       3332               0.300000E-02
       3333               0.485368E-02
       3334               0.300000E-02
       3335               0.300000E-02
       3336               0.300000E-02
       3337               0.300000E-02
       3338               0.300000E-02
       3339               0.300000E-02
       3340               0.300000E-02
       3341               0.300000E-02
       3342               0.300000E-02
       3343               0.300000E-02
       3344               0.300000E-02
       3345               0.300000E-02
       3346               0.300000E-02
       3347               0.300000E-02
       3348               0.144167E-01
       3349               0.114438E-01
       3350               0.300000E-02
       3351               0.300000E-02
       3352               0.300000E-02
       3353               0.768830E-02
       3354               0.300000E-02
       3355               0.136256E-01
       3356               0.300000E-02
       3357               0.300000E-02
       3358               0.300000E-02
       3359               0.219735E-01
       3360               0.419256E-02
       3361               0.300000E-02
       3362               0.168659E-01
       3363               0.300000E-02
       3364               0.300000E-02
       3365               0.300000E-02
       3366               0.300000E-02
       3367               0.973755E-02
       3368               0.207607E-01
       3369               0.729583E-02
       3370               0.300000E-02
       3371               0.300000E-02
       3372               0.138224E-01
       3373               0.300000E-02
       3374               0.300000E-02
       3375               0.300000E-02
       3376               0.300000E-02
       3377               0.300000E-02
       3378               0.285934E-01
       3379               0.157021E-01
       3380               0.184815E-01
       3381               0.503979E-02
       3382               0.300000E-02
       3383               0.115778E-01
       3384               0.300000E-02
       3385               0.103285E-01
       3386               0.226628E-01
       3387               0.783446E-02
       3388               0.300000E-02
       3389               0.266990E-01
       3390               0.300000E-02
       3391               0.300000E-02
       3392               0.300000E-02
       3393               0.469144E-02
       3394               0.300000E-02
       3395               0.423516E-01
       3396               0.300000E-02
       3397               0.854012E-01
       3398               0.216779E-01
       3399               0.578507E-01
       3400               0.300000E-02
       3401               0.300000E-02
       3402               0.300000E-02
       3403               0.300000E-02
       3404               0.300000E-02
       3405               0.300000E-02
       3406               0.667044E-01
       3407               0.177587E-01
       3408               0.300000E-02
       3409               0.300000E-02
       3410               0.300000E-02
       3411               0.300000E-02
       3412               0.300000E-02
       3413               0.300000E-02
       3414               0.300000E-02
       3415               0.300000E-02
       3416               0.300000E-02
       3417               0.300000E-02
       3418               0.300000E-02
       3419               0.300000E-02
       3420               0.300000E-02
       3421               0.300000E-02
       3422               0.363237E-02
       3423               0.714855E-02
       3424               0.300000E-02
       3425               0.300000E-02
       3426               0.300000E-02
       3427               0.300000E-02
       3428               0.300000E-02
       3429               0.300000E-02
       3430               0.304781E-02
       3431               0.300000E-02
       3432               0.300000E-02
       3433               0.300000E-02
       3434               0.300000E-02
       3435               0.300000E-02
       3436               0.300000E-02
       3437               0.300000E-02
       3438               0.300000E-02
       3439               0.300000E-02
       3440               0.300000E-02
       3441               0.300000E-02
       3442               0.300000E-02
       3443               0.300000E-02
       3444               0.300000E-02
       3445               0.300000E-02
       3446               0.300000E-02
       3447               0.300000E-02
       3448               0.300000E-02
       3449               0.300000E-02
       3450               0.300000E-02
       3451               0.300000E-02
       3452               0.300000E-02
       3453               0.300000E-02
       3454               0.300000E-02
       3455               0.300000E-02
       3456               0.300000E-02
       3457               0.334050E-02
       3458               0.300000E-02
       3459               0.300000E-02
       3460               0.300000E-02
       3461               0.300000E-02
       3462               0.300000E-02
       3463               0.177019E-01
       3464               0.300000E-02
       3465               0.300000E-02
       3466               0.300000E-02
       3467               0.502065E-02
       3468               0.300000E-02
       3469               0.300000E-02
       3470               0.300000E-02
       3471               0.300000E-02
       3472               0.300000E-02
       3473               0.300000E-02
       3474               0.300000E-02
       3475               0.300000E-02
       3476               0.105279E-01
       3477               0.300000E-02
       3478               0.300000E-02
       3479               0.104071E-01
       3480               0.300000E-02
       3481               0.300000E-02
       3482               0.300000E-02
       3483               0.300000E-02
       3484               0.300000E-02
       3485               0.300000E-02
       3486               0.300000E-02
       3487               0.300000E-02
       3488               0.710600E-02
       3489               0.300000E-02
       3490               0.875462E-02
       3491               0.122730E-01
       3492               0.300000E-02
       3493               0.300000E-02
       3494               0.300000E-02
       3495               0.300000E-02
       3496               0.300000E-02
       3497               0.300000E-02
       3498               0.300000E-02
       3499               0.300000E-02
       3500               0.300000E-02
       3501               0.300000E-02
       3502               0.300000E-02
       3503               0.300000E-02
       3504               0.285148E-01
       3505               0.417438E-01
       3506               0.300000E-02
       3507               0.366478E-01
       3508               0.300000E-02
       3509               0.134046E-01
       3510               0.115316E-01
       3511               0.657120E-02
       3512               0.433543E-01
       3513               0.300000E-02
       3514               0.300000E-02
       3515               0.300000E-02
       3516               0.300000E-02
       3517               0.300000E-02
       3518               0.300000E-02
       3519               0.300000E-02
       3520               0.300000E-02
       3521               0.300000E-02
       3522               0.300000E-02
       3523               0.300000E-02
       3524               0.300000E-02
       3525               0.300000E-02
       3526               0.300000E-02
       3527               0.300000E-02
       3528               0.300000E-02
       3529               0.300000E-02
       3530               0.300000E-02
       3531               0.300000E-02
       3532               0.300000E-02
       3533               0.300000E-02
       3534               0.300000E-02
       3535               0.300000E-02
       3536               0.300000E-02
       3537               0.300000E-02
       3538               0.300000E-02
       3539               0.300000E-02
       3540               0.300000E-02
       3541               0.300000E-02
       3542               0.300000E-02
       3543               0.300000E-02
       3544               0.300000E-02
       3545               0.300000E-02
       3546               0.300000E-02
       3547               0.300000E-02
       3548               0.300000E-02
       3549               0.300000E-02
       3550               0.300000E-02
       3551               0.300000E-02
       3552               0.300000E-02
       3553               0.300000E-02
       3554               0.300000E-02
       3555               0.300000E-02
       3556               0.300000E-02
       3557               0.300000E-02
       3558               0.300000E-02
       3559               0.300000E-02
       3560               0.300000E-02
       3561               0.300000E-02
       3562               0.300000E-02
       3563               0.300000E-02
       3564               0.300000E-02
       3565               0.300000E-02
       3566               0.300000E-02
       3567               0.300000E-02
       3568               0.300000E-02
       3569               0.300000E-02
       3570               0.300000E-02
       3571               0.300000E-02
       3572               0.300000E-02
       3573               0.300000E-02
       3574               0.300000E-02
       3575               0.300000E-02
       3576               0.300000E-02
       3577               0.300000E-02
       3578               0.300000E-02
       3579               0.300000E-02
       3580               0.300000E-02
       3581               0.300000E-02
       3582               0.300000E-02
       3583               0.300000E-02
       3584               0.300000E-02
       3585               0.300000E-02
       3586               0.300000E-02
       3587               0.300000E-02
       3588               0.300000E-02
       3589               0.300000E-02
       3590               0.300000E-02
       3591               0.300000E-02
       3592               0.300000E-02
       3593               0.300000E-02
       3594               0.300000E-02
       3595               0.300000E-02
       3596               0.300000E-02
       3597               0.300000E-02
       3598               0.300000E-02
       3599               0.300000E-02
       3600               0.300000E-02
       3601               0.300000E-02
       3602               0.300000E-02
       3603               0.300000E-02
       3604               0.300000E-02
       3605               0.300000E-02
       3606               0.300000E-02
       3607               0.300000E-02
       3608               0.300000E-02
       3609               0.300000E-02
       3610               0.300000E-02
       3611               0.300000E-02
       3612               0.300000E-02
       3613               0.300000E-02
       3614               0.300000E-02
       3615               0.300000E-02
       3616               0.300000E-02
       3617               0.300000E-02
       3618               0.300000E-02
       3619               0.300000E-02
       3620               0.802934E-02
       3621               0.300000E-02
       3622               0.300000E-02
       3623               0.300000E-02
       3624               0.300000E-02
       3625               0.317107E-02
       3626               0.300000E-02
       3627               0.300000E-02
       3628               0.300000E-02
       3629               0.300000E-02
       3630               0.300000E-02
       3631               0.300000E-02
       3632               0.300000E-02
       3633               0.300000E-02
       3634               0.300000E-02
       3635               0.300000E-02
       3636               0.300000E-02
       3637               0.300000E-02
       3638               0.300000E-02
       3639               0.300000E-02
       3640               0.300000E-02
       3641               0.300000E-02
       3642               0.300000E-02
       3643               0.300000E-02
       3644               0.300000E-02
       3645               0.300000E-02
       3646               0.300000E-02
       3647               0.300000E-02
       3648               0.300000E-02
       3649               0.300000E-02
       3650               0.300000E-02
       3651               0.300000E-02
       3652               0.300000E-02
       3653               0.300000E-02
       3654               0.300000E-02
       3655               0.300000E-02
       3656               0.300000E-02
       3657               0.300000E-02
       3658               0.300000E-02
       3659               0.300000E-02
       3660               0.300000E-02
       3661               0.300000E-02
       3662               0.300000E-02
       3663               0.300000E-02
       3664               0.300000E-02
       3665               0.300000E-02
       3666               0.300000E-02
       3667               0.300000E-02
       3668               0.300000E-02
       3669               0.300000E-02
       3670               0.300000E-02
       3671               0.300000E-02
       3672               0.300000E-02
       3673               0.300000E-02
       3674               0.300000E-02
       3675               0.300000E-02
       3676               0.300000E-02
       3677               0.300000E-02
       3678               0.300000E-02
       3679               0.300000E-02
       3680               0.300000E-02
       3681               0.447505E-02
       3682               0.300000E-02
       3683               0.300000E-02
       3684               0.525455E-02
       3685               0.399509E-02
       3686               0.300000E-02
       3687               0.680218E-02
       3688               0.300000E-02
       3689               0.300000E-02
       3690               0.513689E-02
       3691               0.300000E-02
       3692               0.300000E-02
       3693               0.300000E-02
       3694               0.300000E-02
       3695               0.300000E-02
       3696               0.300000E-02
       3697               0.300000E-02
       3698               0.300000E-02
       3699               0.300000E-02
       3700               0.300000E-02
       3701               0.300000E-02
       3702               0.300000E-02
       3703               0.300000E-02
       3704               0.300000E-02
       3705               0.300000E-02
       3706               0.300000E-02
       3707               0.300000E-02
       3708               0.300000E-02
       3709               0.300000E-02
       3710               0.300000E-02
       3711               0.300000E-02
       3712               0.300000E-02
       3713               0.300000E-02
       3714               0.300000E-02
       3715               0.300000E-02
       3716               0.300000E-02
       3717               0.300000E-02
       3718               0.300000E-02
       3719               0.300000E-02
       3720               0.300000E-02
       3721               0.300000E-02
       3722               0.300000E-02
       3723               0.141895E-01
       3724               0.189794E-01
       3725               0.300000E-02
       3726               0.300000E-02
       3727               0.300000E-02
       3728               0.300000E-02
       3729               0.300000E-02
       3730               0.300000E-02
       3731               0.192922E-01
       3732               0.300000E-02
       3733               0.811844E-02
       3734               0.437366E-02
       3735               0.300000E-02
       3736               0.110165E-01
       3737               0.300000E-02
       3738               0.300000E-02
       3739               0.300000E-02
       3740               0.300000E-02
       3741               0.300000E-02
       3742               0.300000E-02
       3743               0.300000E-02
       3744               0.300000E-02
       3745               0.112041E-01
       3746               0.300000E-02
       3747               0.300000E-02
       3748               0.111327E-01
       3749               0.300000E-02
       3750               0.167846E-01
       3751               0.635051E-01
       3752               0.300000E-02
       3753               0.300000E-02
       3754               0.300000E-02
       3755               0.300000E-02
       3756               0.300000E-02
       3757               0.300000E-02
       3758               0.300000E-02
       3759               0.300000E-02
       3760               0.300000E-02
       3761               0.300000E-02
       3762               0.300000E-02
       3763               0.300000E-02
       3764               0.328550E-02
       3765               0.300000E-02
       3766               0.300000E-02
       3767               0.300000E-02
       3768               0.300000E-02
       3769               0.300000E-02
       3770               0.300000E-02
       3771               0.300000E-02
       3772               0.300000E-02
       3773               0.300000E-02
       3774               0.300000E-02
       3775               0.210857E-01
       3776               0.292975E-01
       3777               0.230769E-01
       3778               0.300000E-02
       3779               0.405459E-01
       3780               0.300000E-02
       3781               0.300000E-02
       3782               0.300000E-02
       3783               0.300000E-02
       3784               0.300000E-02
       3785               0.300000E-02
       3786               0.300000E-02
       3787               0.300000E-02
       3788               0.300000E-02
       3789               0.300000E-02
       3790               0.359233E-01
       3791               0.300000E-02
       3792               0.479662E-01
       3793               0.300000E-02
       3794               0.300000E-02
       3795               0.300000E-02
       3796               0.300000E-02
       3797               0.300000E-02
       3798               0.300000E-02
       3799               0.300000E-02
       3800               0.300000E-02
       3801               0.300000E-02
       3802               0.300000E-02
       3803               0.300000E-02
       3804               0.300000E-02
       3805               0.300000E-02
       3806               0.300000E-02
       3807               0.300000E-02
       3808               0.300000E-02
       3809               0.300000E-02
       3810               0.300000E-02
       3811               0.300000E-02
       3812               0.300000E-02
       3813               0.300000E-02
       3814               0.300000E-02
       3815               0.856002E-02
       3816               0.300000E-02
       3817               0.209823E-01
       3818               0.300000E-02
       3819               0.300000E-02
       3820               0.316932E-01
       3821               0.300000E-02
       3822               0.163938E-01
       3823               0.908001E-02
       3824               0.300000E-02
       3825               0.300000E-02
       3826               0.300000E-02
       3827               0.300000E-02
       3828               0.300000E-02
       3829               0.300000E-02
       3830               0.300000E-02
       3831               0.300000E-02
       3832               0.300000E-02
       3833               0.300000E-02
       3834               0.300000E-02
       3835               0.300000E-02
       3836               0.300000E-02
       3837               0.300000E-02
       3838               0.300000E-02
       3839               0.300000E-02
       3840               0.899026E-02
       3841               0.744305E-02
       3842               0.537009E-01
       3843               0.300000E-02
       3844               0.300000E-02
       3845               0.300000E-02
       3846               0.300000E-02
       3847               0.300000E-02
       3848               0.300000E-02
       3849               0.511770E-01
       3850               0.300000E-02
       3851               0.300000E-02
       3852               0.300000E-02
       3853               0.300000E-02
       3854               0.300000E-02
       3855               0.300000E-02
       3856               0.300000E-02
       3857               0.300000E-02
       3858               0.300000E-02
       3859               0.300000E-02
       3860               0.300000E-02
       3861               0.300000E-02
       3862               0.300000E-02
       3863               0.300000E-02
       3864               0.300000E-02
       3865               0.300000E-02
       3866               0.300000E-02
       3867               0.300000E-02
       3868               0.300000E-02
       3869               0.300000E-02
       3870               0.300000E-02
       3871               0.300000E-02
       3872               0.300000E-02
       3873               0.300000E-02
       3874               0.300000E-02
       3875               0.300000E-02
       3876               0.300000E-02
       3877               0.300000E-02
       3878               0.300000E-02
       3879               0.300000E-02
       3880               0.300000E-02
       3881               0.300000E-02
       3882               0.300000E-02
       3883               0.300000E-02
       3884               0.300000E-02
       3885               0.300000E-02
       3886               0.300000E-02
       3887               0.300000E-02
       3888               0.300000E-02
       3889               0.300000E-02
       3890               0.300000E-02
       3891               0.300000E-02
       3892               0.300000E-02
       3893               0.300000E-02
       3894               0.300000E-02
       3895               0.300000E-02
       3896               0.300000E-02
       3897               0.300000E-02
       3898               0.300000E-02
       3899               0.300000E-02
       3900               0.300000E-02
       3901               0.300000E-02
       3902               0.300000E-02
       3903               0.300000E-02
       3904               0.300000E-02
       3905               0.300000E-02
       3906               0.300000E-02
       3907               0.300000E-02
       3908               0.300000E-02
       3909               0.300000E-02
       3910               0.300000E-02
       3911               0.300000E-02
       3912               0.300000E-02
       3913               0.300000E-02
       3914               0.300000E-02
       3915               0.300000E-02
       3916               0.300000E-02
       3917               0.300000E-02
       3918               0.300000E-02
       3919               0.300000E-02
       3920               0.300000E-02
       3921               0.134516E-01
       3922               0.300000E-02
       3923               0.300000E-02
       3924               0.300000E-02
       3925               0.300000E-02
       3926               0.300000E-02
       3927               0.300000E-02
       3928               0.300000E-02
       3929               0.300000E-02
       3930               0.300000E-02
       3931               0.300000E-02
       3932               0.300000E-02
       3933               0.300000E-02
       3934               0.300000E-02
       3935               0.300000E-02
       3936               0.300000E-02
       3937               0.300000E-02
       3938               0.300000E-02
       3939               0.300000E-02
       3940               0.300000E-02
       3941               0.300000E-02
       3942               0.300000E-02
       3943               0.300000E-02
       3944               0.916446E-02
       3945               0.300000E-02
       3946               0.300000E-02
       3947               0.300000E-02
       3948               0.300000E-02
       3949               0.300000E-02
       3950               0.300000E-02
       3951               0.300000E-02
       3952               0.300000E-02
       3953               0.300000E-02
       3954               0.300000E-02
       3955               0.300000E-02
       3956               0.300000E-02
       3957               0.300000E-02
       3958               0.300000E-02
       3959               0.300000E-02
       3960               0.300000E-02
       3961               0.300000E-02
       3962               0.300000E-02
       3963               0.300000E-02
       3964               0.300000E-02
       3965               0.300000E-02
       3966               0.300000E-02
       3967               0.300000E-02
       3968               0.300000E-02
       3969               0.300000E-02
       3970               0.300000E-02
       3971               0.300000E-02
       3972               0.300000E-02
       3973               0.348962E-02
       3974               0.115198E-01
       3975               0.300000E-02
       3976               0.300000E-02
       3977               0.300000E-02
       3978               0.300000E-02
       3979               0.300000E-02
       3980               0.300000E-02
       3981               0.300000E-02
       3982               0.300000E-02
       3983               0.300000E-02
       3984               0.300000E-02
       3985               0.300000E-02
       3986               0.300000E-02
       3987               0.300000E-02
       3988               0.300000E-02
       3989               0.300000E-02
       3990               0.300000E-02
       3991               0.300000E-02
       3992               0.300000E-02
       3993               0.300000E-02
       3994               0.300000E-02
       3995               0.300000E-02
       3996               0.300000E-02
       3997               0.300000E-02
       3998               0.300000E-02
       3999               0.300000E-02
       4000               0.300000E-02
       4001               0.300000E-02
       4002               0.300000E-02
       4003               0.300000E-02
       4004               0.300000E-02
       4005               0.300000E-02
       4006               0.300000E-02
       4007               0.300000E-02
       4008               0.300000E-02
       4009               0.300000E-02
       4010               0.300000E-02
       4011               0.300000E-02
       4012               0.300000E-02
       4013               0.300000E-02
       4014               0.300000E-02
       4015               0.300000E-02
       4016               0.300000E-02
       4017               0.300000E-02
       4018               0.300000E-02
       4019               0.300000E-02
       4020               0.300000E-02
       4021               0.300000E-02
       4022               0.300000E-02
       4023               0.300000E-02
       4024               0.300000E-02
       4025               0.300000E-02
       4026               0.300000E-02
       4027               0.300000E-02
       4028               0.300000E-02
       4029               0.300000E-02
       4030               0.300000E-02
       4031               0.300000E-02
       4032               0.300000E-02
       4033               0.300000E-02
       4034               0.300000E-02
       4035               0.300000E-02
       4036               0.300000E-02
       4037               0.300000E-02
       4038               0.300000E-02
       4039               0.300000E-02
       4040               0.300000E-02
       4041               0.300000E-02
       4042               0.300000E-02
       4043               0.300000E-02
       4044               0.300000E-02
       4045               0.300000E-02
       4046               0.300000E-02
       4047               0.300000E-02
       4048               0.300000E-02
       4049               0.300000E-02
       4050               0.300000E-02
       4051               0.300000E-02
       4052               0.300000E-02
       4053               0.300000E-02
       4054               0.300000E-02
       4055               0.300000E-02
       4056               0.300000E-02
       4057               0.300000E-02
       4058               0.300000E-02
       4059               0.300000E-02
       4060               0.300000E-02
       4061               0.300000E-02
       4062               0.300000E-02
       4063               0.300000E-02
       4064               0.300000E-02
       4065               0.300000E-02
       4066               0.300000E-02
       4067               0.300000E-02
       4068               0.300000E-02
       4069               0.300000E-02
       4070               0.300000E-02
       4071               0.300000E-02
       4072               0.300000E-02
       4073               0.300000E-02
       4074               0.300000E-02
       4075               0.300000E-02
       4076               0.300000E-02
       4077               0.300000E-02
       4078               0.300000E-02
       4079               0.300000E-02
       4080               0.300000E-02
       4081               0.300000E-02
       4082               0.300000E-02
       4083               0.300000E-02
       4084               0.300000E-02
       4085               0.300000E-02
       4086               0.300000E-02
       4087               0.300000E-02
       4088               0.300000E-02
       4089               0.300000E-02
       4090               0.300000E-02
       4091               0.300000E-02
       4092               0.300000E-02
       4093               0.300000E-02
       4094               0.300000E-02
       4095               0.300000E-02
       4096               0.300000E-02
       4097               0.300000E-02
       4098               0.300000E-02
       4099               0.300000E-02
       4100               0.391378E-01
       4101               0.300000E-02
       4102               0.300000E-02
       4103               0.403534E-02
       4104               0.300000E-02
       4105               0.101050E-01
       4106               0.300000E-02
       4107               0.641446E-01
       4108               0.127847E-01
       4109               0.729217E-02
       4110               0.300000E-02
       4111               0.300000E-02
       4112               0.386094E-02
       4113               0.791337E-02
       4114               0.300000E-02
       4115               0.300000E-02
       4116               0.201806E-01
       4117               0.109207E-01
       4118               0.300000E-02
       4119               0.134201E-01
       4120               0.306783E-01
       4121               0.239434E-01
       4122               0.300000E-02
       4123               0.882924E-02
       4124               0.163338E-01
       4125               0.195918E-01
       4126               0.178082E-01
       4127               0.130952E-01
       4128               0.300000E-02
       4129               0.300000E-02
       4130               0.300000E-02
       4131               0.300000E-02
       4132               0.300000E-02
       4133               0.288916E-01
       4134               0.300000E-02
       4135               0.300000E-02
       4136               0.300000E-02
       4137               0.300000E-02
       4138               0.256912E-01
       4139               0.460145E-01
       4140               0.147752E-01
       4141               0.300000E-02
       4142               0.300000E-02
       4143               0.183550E-01
       4144               0.154634E-01
       4145               0.300000E-02
       4146               0.300000E-02
       4147               0.300000E-02
       4148               0.300000E-02
       4149               0.300000E-02
       4150               0.329427E-02
       4151               0.302377E-02
       4152               0.300000E-02
       4153               0.300000E-02
       4154               0.389901E-01
       4155               0.300000E-02
       4156               0.300000E-02
       4157               0.300000E-02
       4158               0.300000E-02
       4159               0.122550E-01
       4160               0.300000E-02
       4161               0.300000E-02
       4162               0.257572E-01
       4163               0.600403E-01
       4164               0.300000E-02
       4165               0.373876E-01
       4166               0.287632E-01
       4167               0.300000E-02
       4168               0.300000E-02
       4169               0.782218E-01
       4170               0.337514E-02
       4171               0.158290E-01
       4172               0.157989E-01
       4173               0.300000E-02
       4174               0.122975E-01
       4175               0.300000E-02
       4176               0.300000E-02
       4177               0.300000E-02
       4178               0.300000E-02
       4179               0.300000E-02
       4180               0.300000E-02
       4181               0.300000E-02
       4182               0.300000E-02
       4183               0.300000E-02
       4184               0.300000E-02
       4185               0.300000E-02
       4186               0.300000E-02
       4187               0.300000E-02
       4188               0.474998E-02
       4189               0.300000E-02
       4190               0.300000E-02
       4191               0.300000E-02
       4192               0.300000E-02
       4193               0.300000E-02
       4194               0.300000E-02
       4195               0.300000E-02
       4196               0.300000E-02
       4197               0.300000E-02
       4198               0.300000E-02
       4199               0.300000E-02
       4200               0.300000E-02
       4201               0.300000E-02
       4202               0.300000E-02
       4203               0.300000E-02
       4204               0.300000E-02
       4205               0.300000E-02
       4206               0.145645E-01
       4207               0.162091E-01
       4208               0.300000E-02
       4209               0.182643E-01
       4210               0.656441E-01
       4211               0.300000E-02
       4212               0.300000E-02
       4213               0.300000E-02
       4214               0.300000E-02
       4215               0.300000E-02
       4216               0.300000E-02
       4217               0.300000E-02
       4218               0.300000E-02
       4219               0.300000E-02
       4220               0.300000E-02
       4221               0.300000E-02
       4222               0.300000E-02
       4223               0.300000E-02
       4224               0.300000E-02
       4225               0.300000E-02
       4226               0.300000E-02
       4227               0.300000E-02
       4228               0.300000E-02
       4229               0.300000E-02
       4230               0.300000E-02
       4231               0.300000E-02
       4232               0.300000E-02
       4233               0.300000E-02
       4234               0.300000E-02
       4235               0.300000E-02
       4236               0.300000E-02
       4237               0.300000E-02
       4238               0.300000E-02
       4239               0.300000E-02
       4240               0.300000E-02
       4241               0.300000E-02
       4242               0.300000E-02
       4243               0.300000E-02
       4244               0.300000E-02
       4245               0.300000E-02
       4246               0.300000E-02
       4247               0.770395E-02
       4248               0.300000E-02
       4249               0.300000E-02
       4250               0.300000E-02
       4251               0.300000E-02
       4252               0.300000E-02
       4253               0.300000E-02
       4254               0.300000E-02
       4255               0.300000E-02
       4256               0.300000E-02
       4257               0.300000E-02
       4258               0.300000E-02
       4259               0.300000E-02
       4260               0.300000E-02
       4261               0.300000E-02
       4262               0.300000E-02
       4263               0.300000E-02
       4264               0.300000E-02
       4265               0.300000E-02
       4266               0.300000E-02
       4267               0.300000E-02
       4268               0.300000E-02
       4269               0.300000E-02
       4270               0.300000E-02
       4271               0.300000E-02
       4272               0.300000E-02
       4273               0.300000E-02
       4274               0.300000E-02
       4275               0.300000E-02
       4276               0.300000E-02
       4277               0.300000E-02
       4278               0.300000E-02
       4279               0.300000E-02
       4280               0.300000E-02
       4281               0.300000E-02
       4282               0.300000E-02
       4283               0.300000E-02
       4284               0.300000E-02
       4285               0.300000E-02
       4286               0.300000E-02
       4287               0.300000E-02
       4288               0.300000E-02
       4289               0.300000E-02
       4290               0.300000E-02
       4291               0.763455E-02
       4292               0.300000E-02
       4293               0.441211E-02
       4294               0.300000E-02
       4295               0.300000E-02
       4296               0.105324E-01
       4297               0.300000E-02
       4298               0.942260E-02
       4299               0.300000E-02
       4300               0.300000E-02
       4301               0.300000E-02
       4302               0.300000E-02
       4303               0.300000E-02
       4304               0.364038E-02
       4305               0.300000E-02
       4306               0.373993E-02
       4307               0.300000E-02
       4308               0.300000E-02
       4309               0.300000E-02
       4310               0.300000E-02
       4311               0.300000E-02
       4312               0.300000E-02
       4313               0.300000E-02
       4314               0.300000E-02
       4315               0.300000E-02
       4316               0.300000E-02
       4317               0.300000E-02
       4318               0.300000E-02
       4319               0.300000E-02
       4320               0.300000E-02
       4321               0.300000E-02
       4322               0.300000E-02
       4323               0.300000E-02
       4324               0.300000E-02
       4325               0.300000E-02
       4326               0.300000E-02
       4327               0.300000E-02
       4328               0.300000E-02
       4329               0.300000E-02
       4330               0.300000E-02
       4331               0.300000E-02
       4332               0.300000E-02
       4333               0.300000E-02
       4334               0.300000E-02
       4335               0.300000E-02
       4336               0.300000E-02
       4337               0.300000E-02
       4338               0.300000E-02
       4339               0.300000E-02
       4340               0.300000E-02
       4341               0.300000E-02
       4342               0.300000E-02
       4343               0.517290E-02
       4344               0.300000E-02
       4345               0.300000E-02
       4346               0.300000E-02
       4347               0.300000E-02
       4348               0.300000E-02
       4349               0.300000E-02
       4350               0.300000E-02
       4351               0.300000E-02
       4352               0.300000E-02
       4353               0.300000E-02
       4354               0.300000E-02
       4355               0.300000E-02
       4356               0.300000E-02
       4357               0.300000E-02
       4358               0.300000E-02
       4359               0.300000E-02
       4360               0.300000E-02
       4361               0.300000E-02
       4362               0.300000E-02
       4363               0.300000E-02
       4364               0.300000E-02
       4365               0.300000E-02
       4366               0.300000E-02
       4367               0.300000E-02
       4368               0.300000E-02
       4369               0.300000E-02
       4370               0.300000E-02
       4371               0.300000E-02
       4372               0.300000E-02
       4373               0.300000E-02
       4374               0.300000E-02
       4375               0.300000E-02
       4376               0.300000E-02
       4377               0.300000E-02
       4378               0.300000E-02
       4379               0.300000E-02
       4380               0.300000E-02
       4381               0.300000E-02
       4382               0.300000E-02
       4383               0.300000E-02
       4384               0.300000E-02
       4385               0.300000E-02
       4386               0.300000E-02
       4387               0.300000E-02
       4388               0.300000E-02
       4389               0.300000E-02
       4390               0.300000E-02
       4391               0.300000E-02
       4392               0.300000E-02
       4393               0.300000E-02
       4394               0.300000E-02
       4395               0.300000E-02
       4396               0.300000E-02
       4397               0.300000E-02
       4398               0.300000E-02
       4399               0.300000E-02
       4400               0.300000E-02
       4401               0.300000E-02
       4402               0.300000E-02
       4403               0.300000E-02
       4404               0.300000E-02
       4405               0.300000E-02
       4406               0.300000E-02
       4407               0.300000E-02
       4408               0.300000E-02
       4409               0.300000E-02
       4410               0.300000E-02
       4411               0.300000E-02
       4412               0.300000E-02
       4413               0.300000E-02
       4414               0.300000E-02
       4415               0.300000E-02
       4416               0.300000E-02
       4417               0.300000E-02
       4418               0.300000E-02
       4419               0.323855E-01
       4420               0.151202E-01
       4421               0.300000E-02
       4422               0.300000E-02
       4423               0.300000E-02
       4424               0.300000E-02
       4425               0.153811E-01
       4426               0.979672E-02
       4427               0.600533E-02
       4428               0.300000E-02
       4429               0.300000E-02
       4430               0.138385E-01
       4431               0.300000E-02
       4432               0.300000E-02
       4433               0.300000E-02
       4434               0.300000E-02
       4435               0.300000E-02
       4436               0.300000E-02
       4437               0.300000E-02
       4438               0.300000E-02
       4439               0.300000E-02
       4440               0.300000E-02
       4441               0.300000E-02
       4442               0.721144E-02
       4443               0.300000E-02
       4444               0.300000E-02
       4445               0.300000E-02
       4446               0.300000E-02
       4447               0.300000E-02
       4448               0.404240E-02
       4449               0.300000E-02
       4450               0.300000E-02
       4451               0.300000E-02
       4452               0.300000E-02
       4453               0.300000E-02
       4454               0.175134E-01
       4455               0.693349E-01
       4456               0.300000E-02
       4457               0.700731E-01
       4458               0.300000E-02
       4459               0.300000E-02
       4460               0.186007E-01
       4461               0.184277E-01
       4462               0.300000E-02
       4463               0.580588E-01
       4464               0.300000E-02
       4465               0.300000E-02
       4466               0.173066E-01
       4467               0.300000E-02
       4468               0.170561E-01
       4469               0.534801E-01
       4470               0.246550E-01
       4471               0.300000E-02
       4472               0.180966E-01
       4473               0.300000E-02
       4474               0.250489E-01
       4475               0.300000E-02
       4476               0.300000E-02
       4477               0.251796E-01
       4478               0.273002E-01
       4479               0.260229E-01
       4480               0.300000E-02
       4481               0.300000E-02
       4482               0.300000E-02
       4483               0.300000E-02
       4484               0.300000E-02
       4485               0.300000E-02
       4486               0.300000E-02
       4487               0.389194E-02
       4488               0.300000E-02
       4489               0.300000E-02
       4490               0.449619E-02
       4491               0.300000E-02
       4492               0.300000E-02
       4493               0.300000E-02
       4494               0.300000E-02
       4495               0.300000E-02
       4496               0.300000E-02
       4497               0.703138E-02
       4498               0.300000E-02
       4499               0.494415E-02
       4500               0.553680E-02
       4501               0.300000E-02
       4502               0.300000E-02
       4503               0.300000E-02
       4504               0.330216E-02
       4505               0.300000E-02
       4506               0.300000E-02
       4507               0.699588E-02
       4508               0.478963E-02
       4509               0.300000E-02
       4510               0.300000E-02
       4511               0.300000E-02
       4512               0.300000E-02
       4513               0.300000E-02
       4514               0.300000E-02
       4515               0.300000E-02
       4516               0.300000E-02
       4517               0.300000E-02
       4518               0.300000E-02
       4519               0.300000E-02
       4520               0.300000E-02
       4521               0.300000E-02
       4522               0.300000E-02
       4523               0.300000E-02
       4524               0.300000E-02
       4525               0.154432E-01
       4526               0.300000E-02
       4527               0.300000E-02
       4528               0.107482E-01
       4529               0.127972E-01
       4530               0.165700E-01
       4531               0.300000E-02
       4532               0.300000E-02
       4533               0.251384E-01
       4534               0.300000E-02
       4535               0.300000E-02
       4536               0.210961E-01
       4537               0.176340E-01
       4538               0.300000E-02
       4539               0.941618E-02
       4540               0.729948E-02
       4541               0.300000E-02
       4542               0.300000E-02
       4543               0.300000E-02
       4544               0.300000E-02
       4545               0.300000E-02
       4546               0.300000E-02
       4547               0.300000E-02
       4548               0.300000E-02
       4549               0.132864E-01
       4550               0.300000E-02
       4551               0.105504E-01
       4552               0.300000E-02
       4553               0.241408E-01
       4554               0.300000E-02
       4555               0.169840E-01
       4556               0.300000E-02
       4557               0.300000E-02
       4558               0.300000E-02
       4559               0.227639E-01
       4560               0.300000E-02
       4561               0.414905E-02
       4562               0.132824E-01
       4563               0.832136E-02
       4564               0.300000E-02
       4565               0.300000E-02
       4566               0.300000E-02
       4567               0.300000E-02
       4568               0.941322E-02
       4569               0.382837E-01
       4570               0.185588E-01
       4571               0.300000E-02
       4572               0.123647E-01
       4573               0.206660E-01
       4574               0.122386E-01
       4575               0.300000E-02
       4576               0.300000E-02
       4577               0.300000E-02
       4578               0.300000E-02
       4579               0.300000E-02
       4580               0.300000E-02
       4581               0.300000E-02
       4582               0.300000E-02
       4583               0.300000E-02
       4584               0.300000E-02
       4585               0.300000E-02
       4586               0.300000E-02
       4587               0.300000E-02
       4588               0.300000E-02
       4589               0.300000E-02
       4590               0.300000E-02
       4591               0.300000E-02
       4592               0.300000E-02
       4593               0.300000E-02
       4594               0.300000E-02
       4595               0.300000E-02
       4596               0.300000E-02
       4597               0.300000E-02
       4598               0.300000E-02
       4599               0.300000E-02
       4600               0.300000E-02
       4601               0.300000E-02
       4602               0.300000E-02
       4603               0.300000E-02
       4604               0.300000E-02
       4605               0.300000E-02
       4606               0.300000E-02
       4607               0.329432E-01
       4608               0.207544E-01
       4609               0.300000E-02
       4610               0.300000E-02
       4611               0.300000E-02
       4612               0.300000E-02
       4613               0.300000E-02
       4614               0.300000E-02
       4615               0.300000E-02
       4616               0.300000E-02
       4617               0.300000E-02
       4618               0.300000E-02
       4619               0.300000E-02
       4620               0.300000E-02
       4621               0.300000E-02
       4622               0.300000E-02
       4623               0.300000E-02
       4624               0.300000E-02
       4625               0.300000E-02
       4626               0.300000E-02
       4627               0.300000E-02
       4628               0.300000E-02
       4629               0.300000E-02
       4630               0.300000E-02
       4631               0.300000E-02
       4632               0.300000E-02
       4633               0.300000E-02
       4634               0.300000E-02
       4635               0.532088E-02
       4636               0.300000E-02
       4637               0.300000E-02
       4638               0.824141E-02
       4639               0.300000E-02
       4640               0.300000E-02
       4641               0.300000E-02
       4642               0.300000E-02
       4643               0.176209E-01
       4644               0.899909E-02
       4645               0.300000E-02
       4646               0.300000E-02
       4647               0.300000E-02
       4648               0.300000E-02
       4649               0.300000E-02
       4650               0.300000E-02
       4651               0.300000E-02
       4652               0.300000E-02
       4653               0.300000E-02
       4654               0.300000E-02
       4655               0.300000E-02
       4656               0.300000E-02
       4657               0.300000E-02
       4658               0.300000E-02
       4659               0.300000E-02
       4660               0.300000E-02
       4661               0.300000E-02
       4662               0.300000E-02
       4663               0.300000E-02
       4664               0.300000E-02
       4665               0.300000E-02
       4666               0.300000E-02
       4667               0.300000E-02
       4668               0.300000E-02
       4669               0.300000E-02
       4670               0.300000E-02
       4671               0.300000E-02
       4672               0.300000E-02
       4673               0.300000E-02
       4674               0.300000E-02
       4675               0.300000E-02
       4676               0.300000E-02
       4677               0.300000E-02
       4678               0.300000E-02
       4679               0.300000E-02
       4680               0.300000E-02
       4681               0.300000E-02
       4682               0.300000E-02
       4683               0.300000E-02
       4684               0.300000E-02
       4685               0.300000E-02
       4686               0.142676E-01
       4687               0.902266E-02
       4688               0.300000E-02
       4689               0.300000E-02
       4690               0.300000E-02
       4691               0.300000E-02
       4692               0.300000E-02
       4693               0.300000E-02
       4694               0.777251E-02
       4695               0.775835E-02
       4696               0.941233E-02
       4697               0.300000E-02
       4698               0.300000E-02
       4699               0.300000E-02
       4700               0.155362E-01
       4701               0.300000E-02
       4702               0.605440E-02
       4703               0.300000E-02
       4704               0.300000E-02
       4705               0.300000E-02
       4706               0.300000E-02
       4707               0.300000E-02
       4708               0.300000E-02
       4709               0.300000E-02
       4710               0.300000E-02
       4711               0.300000E-02
       4712               0.300000E-02
       4713               0.300000E-02
       4714               0.300000E-02
       4715               0.300000E-02
       4716               0.300000E-02
       4717               0.300000E-02
       4718               0.300000E-02
       4719               0.300000E-02
       4720               0.300000E-02
       4721               0.300000E-02
       4722               0.300000E-02
       4723               0.300000E-02
       4724               0.300000E-02
       4725               0.300000E-02
       4726               0.300000E-02
       4727               0.300000E-02
       4728               0.300000E-02
       4729               0.300000E-02
       4730               0.300000E-02
       4731               0.300000E-02
       4732               0.300000E-02
       4733               0.300000E-02
       4734               0.300000E-02
       4735               0.300000E-02
       4736               0.300000E-02
       4737               0.300000E-02
       4738               0.300000E-02
       4739               0.300000E-02
       4740               0.300000E-02
       4741               0.300000E-02
       4742               0.300000E-02
       4743               0.300000E-02
       4744               0.300000E-02
       4745               0.300000E-02
       4746               0.300000E-02
       4747               0.300000E-02
       4748               0.300000E-02
       4749               0.300000E-02
       4750               0.300000E-02
       4751               0.300000E-02
       4752               0.300000E-02
       4753               0.300000E-02
       4754               0.300000E-02
       4755               0.300000E-02
       4756               0.300000E-02
       4757               0.300000E-02
       4758               0.300000E-02
       4759               0.300000E-02
       4760               0.300000E-02
       4761               0.300000E-02
       4762               0.300000E-02
       4763               0.300000E-02
       4764               0.300000E-02
       4765               0.300000E-02
       4766               0.300000E-02
       4767               0.300000E-02
       4768               0.300000E-02
       4769               0.300000E-02
       4770               0.300000E-02
       4771               0.300000E-02
       4772               0.300000E-02
       4773               0.300000E-02
       4774               0.300000E-02
       4775               0.300000E-02
       4776               0.300000E-02
       4777               0.300000E-02
       4778               0.300000E-02
       4779               0.300000E-02
       4780               0.300000E-02
       4781               0.300000E-02
       4782               0.300000E-02
       4783               0.737833E-02
       4784               0.300000E-02
       4785               0.300000E-02
       4786               0.300000E-02
       4787               0.300000E-02
       4788               0.300000E-02
       4789               0.300000E-02
       4790               0.300000E-02
       4791               0.300000E-02
       4792               0.300000E-02
       4793               0.300000E-02
       4794               0.300000E-02
       4795               0.300000E-02
       4796               0.300000E-02
       4797               0.300000E-02
       4798               0.300000E-02
       4799               0.300000E-02
       4800               0.300000E-02
       4801               0.139994E-01
       4802               0.300000E-02
       4803               0.300000E-02
       4804               0.300000E-02
       4805               0.300000E-02
       4806               0.300000E-02
       4807               0.300000E-02
       4808               0.300000E-02
       4809               0.207637E-01
       4810               0.300000E-02
       4811               0.300000E-02
       4812               0.300000E-02
       4813               0.300000E-02
       4814               0.300000E-02
       4815               0.300000E-02
       4816               0.300000E-02
       4817               0.300000E-02
       4818               0.300000E-02
       4819               0.300000E-02
       4820               0.300000E-02
       4821               0.300000E-02
       4822               0.300000E-02
       4823               0.300000E-02
       4824               0.300000E-02
       4825               0.300000E-02
       4826               0.300000E-02
       4827               0.300000E-02
       4828               0.300000E-02
       4829               0.300000E-02
       4830               0.300000E-02
       4831               0.300000E-02
       4832               0.300000E-02
       4833               0.300000E-02
       4834               0.300000E-02
       4835               0.300000E-02
       4836               0.300000E-02
       4837               0.300000E-02
       4838               0.300000E-02
       4839               0.300000E-02
       4840               0.300000E-02
       4841               0.300000E-02
       4842               0.300000E-02
       4843               0.300000E-02
       4844               0.300000E-02
       4845               0.300000E-02
       4846               0.300000E-02
       4847               0.300000E-02
       4848               0.300000E-02
       4849               0.300000E-02
       4850               0.300000E-02
       4851               0.436881E-01
       4852               0.122966E-01
       4853               0.542968E-01
       4854               0.300000E-02
       4855               0.300000E-02
       4856               0.907114E-01
       4857               0.260914E-01
       4858               0.300000E-02
       4859               0.292081E-01
       4860               0.160247E-01
       4861               0.300000E-02
       4862               0.300000E-02
       4863               0.473723E-01
       4864               0.300000E-02
       4865               0.150931E-01
       4866               0.184888E-01
       4867               0.213686E-01
       4868               0.296444E-01
       4869               0.108163E-01
       4870               0.300000E-02
       4871               0.126537E-01
       4872               0.300000E-02
       4873               0.990343E-02
       4874               0.241432E-01
       4875               0.825519E-02
       4876               0.907193E-02
       4877               0.300000E-02
       4878               0.686462E-02
       4879               0.300000E-02
       4880               0.300000E-02
       4881               0.300000E-02
       4882               0.300000E-02
       4883               0.300000E-02
       4884               0.300000E-02
       4885               0.300000E-02
       4886               0.648335E-02
       4887               0.300000E-02
       4888               0.300000E-02
       4889               0.300000E-02
       4890               0.300000E-02
       4891               0.300000E-02
       4892               0.300000E-02
       4893               0.300000E-02
       4894               0.300000E-02
       4895               0.300000E-02
       4896               0.300000E-02
       4897               0.300000E-02
       4898               0.300000E-02
       4899               0.300000E-02
       4900               0.300000E-02
       4901               0.300000E-02
       4902               0.300000E-02
       4903               0.300000E-02
       4904               0.300000E-02
       4905               0.300000E-02
       4906               0.300000E-02
       4907               0.300000E-02
       4908               0.300000E-02
       4909               0.300000E-02
       4910               0.300000E-02
       4911               0.300000E-02
       4912               0.300000E-02
       4913               0.300000E-02
       4914               0.300000E-02
       4915               0.300000E-02
       4916               0.300000E-02
       4917               0.300000E-02
       4918               0.300000E-02
       4919               0.300000E-02
       4920               0.300000E-02
       4921               0.300000E-02
       4922               0.300000E-02
       4923               0.300000E-02
       4924               0.300000E-02
       4925               0.300000E-02
       4926               0.300000E-02
       4927               0.300000E-02
       4928               0.300000E-02
       4929               0.300000E-02
       4930               0.300000E-02
       4931               0.300000E-02
       4932               0.300000E-02
       4933               0.300000E-02
       4934               0.300000E-02
       4935               0.300000E-02
       4936               0.300000E-02
       4937               0.300000E-02
       4938               0.300000E-02
       4939               0.300000E-02
       4940               0.300000E-02
       4941               0.300000E-02
       4942               0.300000E-02
       4943               0.300000E-02
       4944               0.300000E-02
       4945               0.300000E-02
       4946               0.300000E-02
       4947               0.300000E-02
       4948               0.300000E-02
       4949               0.191461E-01
       4950               0.187939E-01
       4951               0.108637E-01
       4952               0.123612E-01
       4953               0.300000E-02
       4954               0.191197E-01
       4955               0.300000E-02
       4956               0.300000E-02
       4957               0.300000E-02
       4958               0.300000E-02
       4959               0.300000E-02
       4960               0.300000E-02
       4961               0.300000E-02
       4962               0.300000E-02
       4963               0.300000E-02
       4964               0.300000E-02
       4965               0.300000E-02
       4966               0.300000E-02
       4967               0.300000E-02
       4968               0.300000E-02
       4969               0.300000E-02
       4970               0.300000E-02
       4971               0.300000E-02
       4972               0.300000E-02
       4973               0.300000E-02
       4974               0.300000E-02
       4975               0.300000E-02
       4976               0.300000E-02
       4977               0.300000E-02
       4978               0.300000E-02
       4979               0.300000E-02
       4980               0.300000E-02
       4981               0.300000E-02
       4982               0.300000E-02
       4983               0.300000E-02
       4984               0.300000E-02
       4985               0.300000E-02
       4986               0.300000E-02
       4987               0.300000E-02
       4988               0.300000E-02
       4989               0.300000E-02
       4990               0.300000E-02
       4991               0.300000E-02
       4992               0.300000E-02
       4993               0.300000E-02
       4994               0.300000E-02
       4995               0.300000E-02
       4996               0.300000E-02
       4997               0.300000E-02
       4998               0.300000E-02
       4999               0.300000E-02
       5000               0.300000E-02
       5001               0.300000E-02
       5002               0.300000E-02
       5003               0.300000E-02
       5004               0.300000E-02
       5005               0.300000E-02
       5006               0.300000E-02
       5007               0.300000E-02
       5008               0.300000E-02
       5009               0.300000E-02
       5010               0.300000E-02
       5011               0.300000E-02
       5012               0.300000E-02
       5013               0.300000E-02
       5014               0.300000E-02
       5015               0.300000E-02
       5016               0.300000E-02
       5017               0.300000E-02
       5018               0.300000E-02
       5019               0.300000E-02
       5020               0.300000E-02
       5021               0.300000E-02
       5022               0.300000E-02
       5023               0.300000E-02
       5024               0.324138E-01
       5025               0.300000E-02
       5026               0.300000E-02
       5027               0.300000E-02
       5028               0.300000E-02
       5029               0.300000E-02
       5030               0.300000E-02
       5031               0.300000E-02
       5032               0.272467E-01
       5033               0.352549E-01
       5034               0.300000E-02
       5035               0.300000E-02
       5036               0.300000E-02
       5037               0.300000E-02
       5038               0.300000E-02
       5039               0.300000E-02
       5040               0.300000E-02
       5041               0.300000E-02
       5042               0.300000E-02
       5043               0.300000E-02
       5044               0.300000E-02
       5045               0.300000E-02
       5046               0.300000E-02
       5047               0.300000E-02
       5048               0.300000E-02
       5049               0.300000E-02
       5050               0.300000E-02
       5051               0.300000E-02
       5052               0.300000E-02
       5053               0.300000E-02
       5054               0.300000E-02
       5055               0.300000E-02
       5056               0.300000E-02
       5057               0.300000E-02
       5058               0.300000E-02
       5059               0.300000E-02
       5060               0.300000E-02
       5061               0.300000E-02
       5062               0.300000E-02
       5063               0.300000E-02
       5064               0.300000E-02
       5065               0.300000E-02
       5066               0.300000E-02
       5067               0.300000E-02
       5068               0.300000E-02
       5069               0.300000E-02
       5070               0.300000E-02
       5071               0.300000E-02
       5072               0.300000E-02
       5073               0.300000E-02
       5074               0.300000E-02
       5075               0.300000E-02
       5076               0.300000E-02
       5077               0.300000E-02
       5078               0.300000E-02
       5079               0.300000E-02
       5080               0.300000E-02
       5081               0.300000E-02
       5082               0.300000E-02
       5083               0.300000E-02
       5084               0.300000E-02
       5085               0.300000E-02
       5086               0.300000E-02
       5087               0.300000E-02
       5088               0.300000E-02
       5089               0.300000E-02
       5090               0.893322E-02
       5091               0.514025E-02
       5092               0.300000E-02
       5093               0.300000E-02
       5094               0.300000E-02
       5095               0.300000E-02
       5096               0.300000E-02
       5097               0.300000E-02
       5098               0.300000E-02
       5099               0.300000E-02
       5100               0.300000E-02
       5101               0.300000E-02
       5102               0.300000E-02
       5103               0.300000E-02
       5104               0.300000E-02
       5105               0.300000E-02
       5106               0.300000E-02
       5107               0.300000E-02
       5108               0.360908E-02
       5109               0.300000E-02
       5110               0.300000E-02
       5111               0.897090E-02
       5112               0.183245E-01
       5113               0.300000E-02
       5114               0.300000E-02
       5115               0.300000E-02
       5116               0.300000E-02
       5117               0.300000E-02
       5118               0.300000E-02
       5119               0.300000E-02
       5120               0.300000E-02
       5121               0.300000E-02
       5122               0.300000E-02
       5123               0.300000E-02
       5124               0.300000E-02
       5125               0.300000E-02
       5126               0.300000E-02
       5127               0.300000E-02
       5128               0.300000E-02
       5129               0.300000E-02
       5130               0.300000E-02
       5131               0.300000E-02
       5132               0.202224E-01
       5133               0.300000E-02
       5134               0.300000E-02
       5135               0.300000E-02
       5136               0.300000E-02
       5137               0.300000E-02
       5138               0.300000E-02
       5139               0.300000E-02
       5140               0.300000E-02
       5141               0.300000E-02
       5142               0.300000E-02
       5143               0.300000E-02
       5144               0.300000E-02
       5145               0.300000E-02
       5146               0.300000E-02
       5147               0.300000E-02
       5148               0.300000E-02
       5149               0.300000E-02
       5150               0.300000E-02
       5151               0.300000E-02
       5152               0.300000E-02
       5153               0.300000E-02
       5154               0.300000E-02
       5155               0.300000E-02
       5156               0.300000E-02
       5157               0.300000E-02
       5158               0.300000E-02
       5159               0.300000E-02
       5160               0.300000E-02
       5161               0.300000E-02
       5162               0.300000E-02
       5163               0.300000E-02
       5164               0.300000E-02
       5165               0.300000E-02
       5166               0.300000E-02
       5167               0.300000E-02
       5168               0.300000E-02
       5169               0.300000E-02
       5170               0.300000E-02
       5171               0.300000E-02
       5172               0.300000E-02
       5173               0.300000E-02
       5174               0.300000E-02
       5175               0.300000E-02
       5176               0.300000E-02
       5177               0.300000E-02
       5178               0.300000E-02
       5179               0.300000E-02
       5180               0.300000E-02
       5181               0.300000E-02
       5182               0.300000E-02
       5183               0.300000E-02
       5184               0.300000E-02
       5185               0.300000E-02
       5186               0.300000E-02
       5187               0.300000E-02
       5188               0.341034E-02
       5189               0.300000E-02
       5190               0.300000E-02
       5191               0.300000E-02
       5192               0.300000E-02
       5193               0.300000E-02
       5194               0.300000E-02
       5195               0.300000E-02
       5196               0.300000E-02
       5197               0.300000E-02
       5198               0.300000E-02
       5199               0.300000E-02
       5200               0.300000E-02
       5201               0.300000E-02
       5202               0.300000E-02
       5203               0.300000E-02
       5204               0.300000E-02
       5205               0.300000E-02
       5206               0.300000E-02
       5207               0.300000E-02
       5208               0.300000E-02
       5209               0.300000E-02
       5210               0.300000E-02
       5211               0.300000E-02
       5212               0.300000E-02
       5213               0.300000E-02
       5214               0.239829E-01
       5215               0.300000E-02
       5216               0.300000E-02
       5217               0.300000E-02
       5218               0.300000E-02
       5219               0.300000E-02
       5220               0.300000E-02
       5221               0.300000E-02
       5222               0.300000E-02
       5223               0.300000E-02
       5224               0.300000E-02
       5225               0.300000E-02
       5226               0.300000E-02
       5227               0.300000E-02
       5228               0.300000E-02
       5229               0.300000E-02
       5230               0.300000E-02
       5231               0.300000E-02
       5232               0.300000E-02
       5233               0.300000E-02
       5234               0.300000E-02
       5235               0.300000E-02
       5236               0.300000E-02
       5237               0.300000E-02
       5238               0.300000E-02
       5239               0.300000E-02
       5240               0.300000E-02
       5241               0.300000E-02
       5242               0.300000E-02
       5243               0.300000E-02
       5244               0.300000E-02
       5245               0.300000E-02
       5246               0.300000E-02
       5247               0.300000E-02
       5248               0.300000E-02
       5249               0.300000E-02
       5250               0.300000E-02
       5251               0.300000E-02
       5252               0.300000E-02
       5253               0.300000E-02
       5254               0.300000E-02
       5255               0.300000E-02
       5256               0.300000E-02
       5257               0.300000E-02
       5258               0.300000E-02
       5259               0.300000E-02
       5260               0.300000E-02
       5261               0.300000E-02
       5262               0.300000E-02
       5263               0.300000E-02
       5264               0.300000E-02
       5265               0.300000E-02
       5266               0.300000E-02
       5267               0.300000E-02
       5268               0.300000E-02
       5269               0.300000E-02
       5270               0.300000E-02
       5271               0.300000E-02
       5272               0.300000E-02
       5273               0.300000E-02
       5274               0.300000E-02
       5275               0.300000E-02
       5276               0.300000E-02
       5277               0.300000E-02
       5278               0.300000E-02
       5279               0.300000E-02
       5280               0.300000E-02
       5281               0.800672E-01
       5282               0.300000E-02
       5283               0.654273E-02
       5284               0.106286E-01
       5285               0.157656E-01
       5286               0.397858E-01
       5287               0.300000E-02
       5288               0.148908E-01
       5289               0.500484E-02
       5290               0.880451E-01
       5291               0.300000E-02
       5292               0.108577E-01
       5293               0.300000E-02
       5294               0.416708E-01
       5295               0.428901E-01
       5296               0.300000E-02
       5297               0.300000E-02
       5298               0.300000E-02
       5299               0.300000E-02
       5300               0.300000E-02
       5301               0.300000E-02
       5302               0.300000E-02
       5303               0.300000E-02
       5304               0.300000E-02
       5305               0.300000E-02
       5306               0.300000E-02
       5307               0.300000E-02
       5308               0.300000E-02
       5309               0.300000E-02
       5310               0.300000E-02
       5311               0.300000E-02
       5312               0.300000E-02
       5313               0.300000E-02
       5314               0.300000E-02
       5315               0.300000E-02
       5316               0.300000E-02
       5317               0.300000E-02
       5318               0.300000E-02
       5319               0.300000E-02
       5320               0.300000E-02
       5321               0.300000E-02
       5322               0.300000E-02
       5323               0.129665E-01
       5324               0.300000E-02
       5325               0.300000E-02
       5326               0.300000E-02
       5327               0.921310E-02
       5328               0.913561E-02
       5329               0.300000E-02
       5330               0.300000E-02
       5331               0.300000E-02
       5332               0.782238E-02
       5333               0.300000E-02
       5334               0.761466E-02
       5335               0.663662E-02
       5336               0.682302E-02
       5337               0.300000E-02
       5338               0.121985E-01
       5339               0.300000E-02
       5340               0.120416E-01
       5341               0.740748E-02
       5342               0.300000E-02
       5343               0.376892E-02
       5344               0.300000E-02
       5345               0.715829E-02
       5346               0.850916E-02
       5347               0.300000E-02
       5348               0.777149E-02
       5349               0.394353E-01
       5350               0.307832E-01
       5351               0.188115E-01
       5352               0.107125    
       5353               0.604699E-01
       5354               0.300000E-02
       5355               0.300000E-02
       5356               0.300000E-02
       5357               0.300000E-02
       5358               0.300000E-02
       5359               0.300000E-02
       5360               0.300000E-02
       5361               0.300000E-02
       5362               0.300000E-02
       5363               0.300000E-02
       5364               0.300000E-02
       5365               0.300000E-02
       5366               0.300000E-02
       5367               0.300000E-02
       5368               0.300000E-02
       5369               0.300000E-02
       5370               0.300000E-02
       5371               0.300000E-02
       5372               0.300000E-02
       5373               0.300000E-02
       5374               0.300000E-02
       5375               0.300000E-02
       5376               0.300000E-02
       5377               0.300000E-02
       5378               0.300000E-02
       5379               0.300000E-02
       5380               0.300000E-02
       5381               0.300000E-02
       5382               0.300000E-02
       5383               0.300000E-02
       5384               0.300000E-02
       5385               0.300000E-02
       5386               0.300000E-02
       5387               0.300000E-02
       5388               0.300000E-02
       5389               0.300000E-02
       5390               0.300000E-02
       5391               0.300000E-02
       5392               0.300000E-02
       5393               0.300000E-02
       5394               0.300000E-02
       5395               0.300000E-02
       5396               0.735774E-02
       5397               0.300000E-02
       5398               0.103651E-01
       5399               0.116394E-01
       5400               0.300000E-02
       5401               0.300000E-02
       5402               0.300000E-02
       5403               0.300000E-02
       5404               0.300000E-02
       5405               0.300000E-02
       5406               0.300000E-02
       5407               0.300000E-02
       5408               0.300000E-02
       5409               0.300000E-02
       5410               0.300000E-02
       5411               0.300000E-02
       5412               0.300000E-02
       5413               0.300000E-02
       5414               0.300000E-02
       5415               0.300000E-02
       5416               0.300000E-02
       5417               0.300000E-02
       5418               0.300000E-02
       5419               0.300000E-02
       5420               0.300000E-02
       5421               0.300000E-02
       5422               0.300000E-02
       5423               0.300000E-02
       5424               0.300000E-02
       5425               0.300000E-02
       5426               0.300000E-02
       5427               0.123036E-01
       5428               0.302920E-01
       5429               0.112499E-01
       5430               0.300000E-02
       5431               0.300000E-02
       5432               0.300000E-02
       5433               0.300000E-02
       5434               0.300000E-02
       5435               0.300000E-02
       5436               0.300000E-02
       5437               0.300000E-02
       5438               0.300000E-02
       5439               0.300000E-02
       5440               0.300000E-02
       5441               0.300000E-02
       5442               0.300000E-02
       5443               0.300000E-02
       5444               0.300000E-02
       5445               0.300000E-02
       5446               0.300000E-02
       5447               0.300000E-02
       5448               0.300000E-02
       5449               0.300000E-02
       5450               0.300000E-02
       5451               0.300000E-02
       5452               0.300000E-02
       5453               0.300000E-02
       5454               0.300000E-02
       5455               0.300000E-02
       5456               0.300000E-02
       5457               0.300000E-02
       5458               0.300000E-02
       5459               0.300000E-02
       5460               0.300000E-02
       5461               0.300000E-02
       5462               0.300000E-02
       5463               0.300000E-02
       5464               0.300000E-02
       5465               0.300000E-02
       5466               0.300000E-02
       5467               0.300000E-02
       5468               0.300000E-02
       5469               0.300000E-02
       5470               0.300000E-02
       5471               0.300000E-02
       5472               0.300000E-02
       5473               0.300000E-02
       5474               0.568483E-01
       5475               0.907287E-02
       5476               0.300000E-02
       5477               0.300000E-02
       5478               0.300000E-02
       5479               0.300000E-02
       5480               0.300000E-02
       5481               0.300000E-02
       5482               0.300000E-02
       5483               0.300000E-02
       5484               0.300000E-02
       5485               0.300000E-02
       5486               0.300000E-02
       5487               0.300000E-02
       5488               0.300000E-02
       5489               0.300000E-02
       5490               0.300000E-02
       5491               0.421988E-02
       5492               0.300000E-02
       5493               0.300000E-02
       5494               0.300000E-02
       5495               0.300000E-02
       5496               0.300000E-02
       5497               0.300000E-02
       5498               0.300000E-02
       5499               0.300000E-02
       5500               0.300000E-02
       5501               0.300000E-02
       5502               0.300000E-02
       5503               0.300000E-02
       5504               0.300000E-02
       5505               0.300000E-02
       5506               0.300000E-02
       5507               0.300000E-02
       5508               0.300000E-02
       5509               0.300000E-02
       5510               0.300000E-02
       5511               0.300000E-02
       5512               0.300000E-02
       5513               0.300000E-02
       5514               0.300000E-02
       5515               0.300000E-02
       5516               0.300000E-02
       5517               0.300000E-02
       5518               0.300000E-02
       5519               0.300000E-02
       5520               0.300000E-02
       5521               0.300000E-02
       5522               0.300000E-02
       5523               0.300000E-02
       5524               0.300000E-02
       5525               0.300000E-02
       5526               0.300000E-02
       5527               0.300000E-02
       5528               0.300000E-02
       5529               0.300000E-02
       5530               0.300000E-02
       5531               0.300000E-02
       5532               0.300000E-02
       5533               0.300000E-02
       5534               0.300000E-02
       5535               0.300000E-02
       5536               0.300000E-02
       5537               0.300000E-02
       5538               0.300000E-02
       5539               0.300000E-02
       5540               0.300000E-02
       5541               0.300000E-02
       5542               0.374178E-01
       5543               0.300000E-02
       5544               0.652306E-02
       5545               0.300000E-02
       5546               0.300000E-02
       5547               0.300000E-02
       5548               0.300000E-02
       5549               0.300000E-02
       5550               0.300000E-02
       5551               0.300000E-02
       5552               0.300000E-02
       5553               0.114478E-01
       5554               0.300000E-02
       5555               0.300000E-02
       5556               0.446410E-02
       5557               0.300000E-02
       5558               0.300000E-02
       5559               0.300000E-02
       5560               0.300000E-02
       5561               0.300000E-02
       5562               0.300000E-02
       5563               0.300000E-02
       5564               0.320566E-02
       5565               0.300000E-02
       5566               0.300000E-02
       5567               0.300000E-02
       5568               0.149142E-01
       5569               0.300000E-02
       5570               0.300000E-02
       5571               0.395364E-02
       5572               0.300000E-02
       5573               0.300000E-02
       5574               0.300000E-02
       5575               0.300000E-02
       5576               0.300000E-02
       5577               0.300000E-02
       5578               0.300000E-02
       5579               0.300000E-02
       5580               0.300000E-02
       5581               0.300000E-02
       5582               0.300000E-02
       5583               0.676456E-02
       5584               0.300000E-02
       5585               0.300000E-02
       5586               0.127963E-01
       5587               0.300000E-02
       5588               0.300000E-02
       5589               0.300000E-02
       5590               0.300000E-02
       5591               0.300000E-02
       5592               0.388453E-02
       5593               0.300000E-02
       5594               0.300000E-02
       5595               0.300000E-02
       5596               0.769163E-02
       5597               0.300000E-02
       5598               0.159041E-01
       5599               0.300000E-02
       5600               0.300000E-02
       5601               0.300000E-02
       5602               0.300000E-02
       5603               0.300000E-02
       5604               0.300000E-02
       5605               0.300000E-02
       5606               0.300000E-02
       5607               0.300000E-02
       5608               0.300000E-02
       5609               0.300000E-02
       5610               0.300000E-02
       5611               0.300000E-02
       5612               0.300000E-02
       5613               0.300000E-02
       5614               0.300000E-02
       5615               0.319113E-01
       5616               0.388903E-01
       5617               0.300000E-02
       5618               0.300000E-02
       5619               0.300000E-02
       5620               0.300000E-02
       5621               0.300000E-02
       5622               0.300000E-02
       5623               0.300000E-02
       5624               0.300000E-02
       5625               0.300000E-02
       5626               0.300000E-02
       5627               0.300000E-02
       5628               0.300000E-02
       5629               0.300000E-02
       5630               0.300000E-02
       5631               0.300000E-02
       5632               0.300000E-02
       5633               0.300000E-02
       5634               0.300000E-02
       5635               0.300000E-02
       5636               0.300000E-02
       5637               0.300000E-02
       5638               0.300000E-02
       5639               0.300000E-02
       5640               0.300000E-02
       5641               0.300000E-02
       5642               0.300000E-02
       5643               0.300000E-02
       5644               0.300000E-02
       5645               0.300000E-02
       5646               0.300000E-02
       5647               0.300000E-02
       5648               0.300000E-02
       5649               0.300000E-02
       5650               0.300000E-02
       5651               0.300000E-02
       5652               0.361866E-01
       5653               0.300000E-02
       5654               0.300000E-02
       5655               0.300000E-02
       5656               0.281574E-01
       5657               0.300000E-02
       5658               0.300000E-02
       5659               0.300000E-02
       5660               0.300000E-02
       5661               0.300000E-02
       5662               0.300000E-02
       5663               0.522521E-02
       5664               0.300000E-02
       5665               0.114818E-01
       5666               0.300000E-02
       5667               0.300000E-02
       5668               0.300000E-02
       5669               0.300000E-02
       5670               0.300000E-02
       5671               0.300000E-02
       5672               0.300000E-02
       5673               0.300000E-02
       5674               0.300000E-02
       5675               0.300000E-02
       5676               0.300000E-02
       5677               0.300000E-02
       5678               0.300000E-02
       5679               0.300000E-02
       5680               0.300000E-02
       5681               0.300000E-02
       5682               0.300000E-02
       5683               0.128905E-01
       5684               0.300000E-02
       5685               0.491089E-01
       5686               0.241127E-01
       5687               0.278738E-01
       5688               0.300000E-02
       5689               0.300000E-02
       5690               0.401515E-02
       5691               0.390398E-01
       5692               0.172431E-01
       5693               0.152298E-01
       5694               0.300000E-02
       5695               0.300000E-02
       5696               0.300000E-02
       5697               0.300000E-02
       5698               0.257779E-01
       5699               0.209424E-01
       5700               0.139149E-01
       5701               0.300000E-02
       5702               0.300000E-02
       5703               0.300000E-02
       5704               0.300000E-02
       5705               0.300000E-02
       5706               0.300000E-02
       5707               0.300000E-02
       5708               0.300000E-02
       5709               0.300000E-02
       5710               0.300000E-02
       5711               0.134974E-01
       5712               0.133314E-01
       5713               0.417724E-02
       5714               0.300000E-02
       5715               0.300000E-02
       5716               0.300000E-02
       5717               0.998634E-02
       5718               0.105779E-01
       5719               0.952053E-02
       5720               0.300000E-02
       5721               0.300000E-02
       5722               0.123159E-01
       5723               0.969059E-02
       5724               0.300000E-02
       5725               0.300000E-02
       5726               0.300000E-02
       5727               0.300000E-02
       5728               0.300000E-02
       5729               0.300000E-02
       5730               0.300000E-02
       5731               0.300000E-02
       5732               0.300000E-02
       5733               0.300000E-02
       5734               0.300000E-02
       5735               0.300000E-02
       5736               0.300000E-02
       5737               0.300000E-02
       5738               0.300000E-02
       5739               0.300000E-02
       5740               0.300000E-02
       5741               0.112062E-01
       5742               0.852296E-02
       5743               0.300000E-02
       5744               0.713392E-02
       5745               0.745348E-02
       5746               0.300000E-02
       5747               0.300000E-02
       5748               0.300000E-02
       5749               0.300000E-02
       5750               0.300000E-02
       5751               0.300000E-02
       5752               0.300000E-02
       5753               0.300000E-02
       5754               0.300000E-02
       5755               0.300000E-02
       5756               0.300000E-02
       5757               0.300000E-02
       5758               0.300000E-02
       5759               0.300000E-02
       5760               0.300000E-02
       5761               0.300000E-02
       5762               0.300000E-02
       5763               0.300000E-02
       5764               0.814271E-02
       5765               0.338835E-02
       5766               0.300000E-02
       5767               0.300000E-02
       5768               0.300000E-02
       5769               0.300000E-02
       5770               0.300000E-02
       5771               0.300000E-02
       5772               0.300000E-02
       5773               0.300000E-02
       5774               0.759296E-02
       5775               0.300000E-02
       5776               0.879442E-02
       5777               0.106260E-01
       5778               0.457550E-01
       5779               0.473380E-01
       5780               0.252706E-01
       5781               0.300000E-02
       5782               0.300000E-02
       5783               0.300000E-02
       5784               0.300000E-02
       5785               0.300000E-02
       5786               0.300000E-02
       5787               0.300000E-02
       5788               0.300000E-02
       5789               0.300000E-02
       5790               0.300000E-02
       5791               0.300000E-02
       5792               0.300000E-02
       5793               0.300000E-02
       5794               0.777468E-02
       5795               0.300000E-02
       5796               0.300000E-02
       5797               0.275904E-01
       5798               0.297897E-01
       5799               0.205705E-01
       5800               0.300000E-02
       5801               0.300000E-02
       5802               0.300000E-02
       5803               0.300000E-02
       5804               0.300000E-02
       5805               0.300000E-02
       5806               0.655696E-02
       5807               0.749518E-02
       5808               0.300000E-02
       5809               0.300000E-02
       5810               0.300000E-02
       5811               0.300000E-02
       5812               0.300000E-02
       5813               0.300000E-02
       5814               0.300000E-02
       5815               0.833636E-01
       5816               0.300000E-02
       5817               0.160828E-01
       5818               0.644971E-02
       5819               0.262075E-01
       5820               0.132985E-01
       5821               0.186686E-01
       5822               0.300000E-02
       5823               0.578622E-01
       5824               0.300000E-02
       5825               0.320026E-02
       5826               0.367779E-01
       5827               0.287936E-01
       5828               0.300000E-02
       5829               0.532020E-01
       5830               0.300000E-02
       5831               0.101812E-01
       5832               0.113587E-01
       5833               0.251473E-01
       5834               0.382740E-01
       5835               0.300000E-02
       5836               0.300000E-02
       5837               0.300000E-02
       5838               0.512984E-01
       5839               0.300000E-02
       5840               0.300000E-02
       5841               0.300000E-02
       5842               0.300000E-02
       5843               0.300000E-02
       5844               0.300000E-02
       5845               0.137109E-01
       5846               0.240980E-01
       5847               0.300000E-02
       5848               0.193647E-01
       5849               0.300000E-02
       5850               0.300000E-02
       5851               0.300000E-02
       5852               0.711667E-02
       5853               0.300000E-02
       5854               0.300000E-02
       5855               0.300000E-02
       5856               0.300000E-02
       5857               0.753896E-01
       5858               0.100882E-01
       5859               0.735175E-02
       5860               0.319632E-01
       5861               0.300000E-02
       5862               0.925838E-01
       5863               0.365069E-01
       5864               0.300000E-02
       5865               0.300000E-02
       5866               0.300000E-02
       5867               0.300000E-02
       5868               0.300000E-02
       5869               0.300000E-02
       5870               0.300000E-02
       5871               0.300000E-02
       5872               0.300000E-02
       5873               0.300000E-02
       5874               0.300000E-02
       5875               0.300000E-02
       5876               0.809904E-02
       5877               0.300000E-02
       5878               0.300000E-02
       5879               0.300000E-02
       5880               0.300000E-02
       5881               0.300000E-02
       5882               0.192670E-01
       5883               0.300000E-02
       5884               0.300000E-02
       5885               0.300000E-02
       5886               0.300000E-02
       5887               0.300000E-02
       5888               0.155508E-01
       5889               0.309211E-01
       5890               0.130828E-01
       5891               0.300000E-02
       5892               0.300000E-02
       5893               0.300000E-02
       5894               0.300000E-02
       5895               0.300000E-02
       5896               0.300000E-02
       5897               0.300000E-02
       5898               0.300000E-02
       5899               0.300000E-02
       5900               0.300000E-02
       5901               0.300000E-02
       5902               0.300000E-02
       5903               0.300000E-02
       5904               0.518874E-01
       5905               0.300000E-02
       5906               0.300000E-02
       5907               0.300000E-02
       5908               0.300000E-02
       5909               0.485399E-02
       5910               0.300000E-02
       5911               0.300000E-02
       5912               0.300000E-02
       5913               0.300000E-02
       5914               0.300000E-02
       5915               0.300000E-02
       5916               0.300000E-02
       5917               0.300000E-02
       5918               0.300000E-02
       5919               0.300000E-02
       5920               0.300000E-02
       5921               0.300000E-02
       5922               0.300000E-02
       5923               0.681878E-02
       5924               0.300000E-02
       5925               0.300000E-02
       5926               0.300000E-02
       5927               0.300000E-02
       5928               0.300000E-02
       5929               0.132758E-01
       5930               0.300000E-02
       5931               0.300000E-02
       5932               0.300000E-02
       5933               0.300000E-02
       5934               0.300000E-02
       5935               0.300000E-02
       5936               0.300000E-02
       5937               0.300000E-02
       5938               0.300000E-02
       5939               0.300000E-02
       5940               0.300000E-02
       5941               0.300000E-02
       5942               0.300000E-02
       5943               0.300000E-02
       5944               0.136833E-01
       5945               0.300000E-02
       5946               0.300000E-02
       5947               0.300000E-02
       5948               0.300000E-02
       5949               0.300000E-02
       5950               0.300000E-02
       5951               0.300000E-02
       5952               0.300000E-02
       5953               0.300000E-02
       5954               0.490955E-01
       5955               0.300000E-02
       5956               0.300000E-02
       5957               0.300000E-02
       5958               0.300000E-02
       5959               0.300000E-02
       5960               0.300000E-02
       5961               0.300000E-02
       5962               0.300000E-02
       5963               0.300000E-02
       5964               0.300000E-02
       5965               0.300000E-02
       5966               0.300000E-02
       5967               0.300000E-02
       5968               0.300000E-02
       5969               0.300000E-02
       5970               0.629418E-01
       5971               0.300000E-02
       5972               0.300000E-02
       5973               0.300000E-02
       5974               0.300000E-02
       5975               0.310454E-02
       5976               0.300000E-02
       5977               0.300000E-02
       5978               0.300000E-02
       5979               0.300000E-02
       5980               0.300000E-02
       5981               0.300000E-02
       5982               0.300000E-02
       5983               0.300000E-02
       5984               0.300000E-02
       5985               0.300000E-02
       5986               0.300000E-02
       5987               0.401932E-02
       5988               0.708868E-02
       5989               0.300000E-02
       5990               0.300000E-02
       5991               0.300000E-02
       5992               0.300000E-02
       5993               0.300000E-02
       5994               0.300000E-02
       5995               0.300000E-02
       5996               0.300000E-02
       5997               0.300000E-02
       5998               0.300000E-02
       5999               0.300000E-02
       6000               0.300000E-02
       6001               0.300000E-02
       6002               0.300000E-02
       6003               0.300000E-02
       6004               0.300000E-02
       6005               0.300000E-02
       6006               0.300000E-02
       6007               0.300000E-02
       6008               0.300000E-02
       6009               0.300000E-02
       6010               0.300000E-02
       6011               0.154082E-01
       6012               0.300000E-02
       6013               0.300000E-02
       6014               0.300000E-02
       6015               0.300000E-02
       6016               0.300000E-02
       6017               0.300000E-02
       6018               0.300000E-02
       6019               0.300000E-02
       6020               0.300000E-02
       6021               0.300000E-02
       6022               0.300000E-02
       6023               0.300000E-02
       6024               0.300000E-02
       6025               0.300000E-02
       6026               0.300000E-02
       6027               0.300000E-02
       6028               0.300000E-02
       6029               0.300000E-02
       6030               0.300000E-02
       6031               0.300000E-02
       6032               0.300000E-02
       6033               0.300000E-02
       6034               0.300000E-02
       6035               0.300000E-02
       6036               0.300000E-02
       6037               0.300000E-02
       6038               0.300000E-02
       6039               0.300000E-02
       6040               0.300000E-02
       6041               0.300000E-02
       6042               0.300000E-02
       6043               0.300000E-02
       6044               0.300000E-02
       6045               0.300000E-02
       6046               0.300000E-02
       6047               0.561067E-02
       6048               0.300000E-02
       6049               0.300000E-02
       6050               0.300000E-02
       6051               0.300000E-02
       6052               0.300000E-02
       6053               0.300000E-02
       6054               0.300000E-02
       6055               0.300000E-02
       6056               0.300000E-02
       6057               0.300000E-02
       6058               0.300000E-02
       6059               0.300000E-02
       6060               0.300000E-02
       6061               0.302549E-02
       6062               0.300000E-02
       6063               0.300000E-02
       6064               0.300000E-02
       6065               0.917734E-02
       6066               0.300000E-02
       6067               0.300000E-02
       6068               0.300000E-02
       6069               0.300000E-02
       6070               0.300000E-02
       6071               0.300000E-02
       6072               0.300000E-02
       6073               0.300000E-02
       6074               0.300000E-02
       6075               0.300000E-02
       6076               0.300000E-02
       6077               0.300000E-02
       6078               0.300000E-02
       6079               0.915514E-02
       6080               0.300000E-02
       6081               0.425510E-02
       6082               0.300000E-02
       6083               0.316884E-02
       6084               0.751464E-01
       6085               0.300000E-02
       6086               0.188742E-01
       6087               0.300000E-02
       6088               0.152054E-01
       6089               0.300000E-02
       6090               0.461537E-01
       6091               0.300000E-02
       6092               0.239917E-01
       6093               0.300000E-02
       6094               0.300000E-02
       6095               0.562568E-01
       6096               0.300000E-02
       6097               0.367498E-02
       6098               0.148010E-01
       6099               0.582335E-01
       6100               0.300000E-02
       6101               0.300000E-02
       6102               0.300000E-02
       6103               0.300000E-02
       6104               0.300000E-02
       6105               0.300000E-02
       6106               0.300000E-02
       6107               0.300000E-02
       6108               0.300000E-02
       6109               0.300000E-02
       6110               0.130627E-01
       6111               0.300000E-02
       6112               0.300000E-02
       6113               0.300000E-02
       6114               0.300000E-02
       6115               0.300000E-02
       6116               0.300000E-02
       6117               0.300000E-02
       6118               0.300000E-02
       6119               0.300000E-02
       6120               0.300000E-02
       6121               0.300000E-02
       6122               0.300000E-02
       6123               0.300000E-02
       6124               0.300000E-02
       6125               0.300000E-02
       6126               0.300000E-02
       6127               0.300000E-02
       6128               0.300000E-02
       6129               0.300000E-02
       6130               0.300000E-02
       6131               0.300000E-02
       6132               0.300000E-02
       6133               0.300000E-02
       6134               0.300000E-02
       6135               0.300000E-02
       6136               0.300000E-02
       6137               0.300000E-02
       6138               0.300000E-02
       6139               0.300000E-02
       6140               0.300000E-02
       6141               0.300000E-02
       6142               0.300000E-02
       6143               0.300000E-02
       6144               0.300000E-02
       6145               0.300000E-02
       6146               0.300000E-02
       6147               0.300000E-02
       6148               0.300000E-02
       6149               0.300000E-02
       6150               0.300000E-02
       6151               0.300000E-02
       6152               0.300000E-02
       6153               0.300000E-02
       6154               0.300000E-02
       6155               0.300000E-02
       6156               0.300000E-02
       6157               0.300000E-02
       6158               0.300000E-02
       6159               0.300000E-02
       6160               0.300000E-02
       6161               0.300000E-02
       6162               0.300000E-02
       6163               0.300000E-02
       6164               0.300000E-02
       6165               0.300000E-02
       6166               0.300000E-02
       6167               0.300000E-02
       6168               0.156123E-01
       6169               0.300000E-02
       6170               0.300000E-02
       6171               0.112698E-01
       6172               0.300000E-02
       6173               0.300000E-02
       6174               0.114551E-01
       6175               0.195528E-01
       6176               0.300000E-02
       6177               0.300000E-02
       6178               0.100750E-01
       6179               0.150810E-01
       6180               0.214536E-01
       6181               0.345285E-02
       6182               0.164825E-01
       6183               0.133864E-01
       6184               0.300000E-02
       6185               0.263006E-01
       6186               0.300000E-02
       6187               0.300000E-02
       6188               0.300000E-02
       6189               0.300000E-02
       6190               0.300000E-02
       6191               0.300000E-02
       6192               0.300000E-02
       6193               0.300000E-02
       6194               0.300000E-02
       6195               0.300000E-02
       6196               0.300000E-02
       6197               0.300000E-02
       6198               0.300000E-02
       6199               0.300000E-02
       6200               0.300000E-02
       6201               0.300000E-02
       6202               0.300000E-02
       6203               0.300000E-02
       6204               0.300000E-02
       6205               0.300000E-02
       6206               0.300000E-02
       6207               0.300000E-02
       6208               0.266249E-01
       6209               0.300000E-02
       6210               0.300000E-02
       6211               0.300000E-02
       6212               0.300000E-02
       6213               0.300000E-02
       6214               0.300000E-02
       6215               0.300000E-02
       6216               0.300000E-02
       6217               0.300000E-02
       6218               0.300000E-02
       6219               0.300000E-02
       6220               0.300000E-02
       6221               0.300000E-02
       6222               0.300000E-02
       6223               0.300000E-02
       6224               0.300000E-02
       6225               0.300000E-02
       6226               0.128655E-01
       6227               0.300000E-02
       6228               0.300000E-02
       6229               0.300000E-02
       6230               0.300000E-02
       6231               0.300000E-02
       6232               0.785143E-01
       6233               0.300000E-02
       6234               0.300000E-02
       6235               0.572163E-01
       6236               0.852856E-02
       6237               0.300000E-02
       6238               0.300000E-02
       6239               0.300000E-02
       6240               0.300000E-02
       6241               0.300000E-02
       6242               0.300000E-02
       6243               0.300000E-02
       6244               0.300000E-02
       6245               0.300000E-02
       6246               0.639235E-01
       6247               0.300000E-02
       6248               0.300000E-02
       6249               0.300000E-02
       6250               0.300000E-02
       6251               0.300000E-02
       6252               0.300000E-02
       6253               0.300000E-02
       6254               0.300000E-02
       6255               0.300000E-02
       6256               0.744979E-02
       6257               0.300000E-02
       6258               0.300000E-02
       6259               0.300000E-02
       6260               0.300000E-02
       6261               0.300000E-02
       6262               0.300000E-02
       6263               0.300000E-02
       6264               0.300000E-02
       6265               0.263412E-01
       6266               0.509446E-01
       6267               0.300000E-02
       6268               0.300000E-02
       6269               0.300000E-02
       6270               0.300000E-02
       6271               0.202141E-01
       6272               0.300000E-02
       6273               0.300000E-02
       6274               0.300000E-02
       6275               0.300000E-02
       6276               0.300000E-02
       6277               0.300000E-02
       6278               0.300000E-02
       6279               0.300000E-02
       6280               0.575600E-02
       6281               0.300000E-02
       6282               0.300000E-02
       6283               0.300000E-02
       6284               0.300000E-02
       6285               0.300000E-02
       6286               0.300000E-02
       6287               0.300000E-02
       6288               0.300000E-02
       6289               0.300000E-02
       6290               0.300000E-02
       6291               0.300000E-02
       6292               0.501048E-01
       6293               0.300000E-02
       6294               0.300000E-02
       6295               0.300000E-02
       6296               0.300000E-02
       6297               0.300000E-02
       6298               0.300000E-02
       6299               0.300000E-02
       6300               0.300000E-02
       6301               0.300000E-02
       6302               0.300000E-02
       6303               0.300000E-02
       6304               0.300000E-02
       6305               0.300000E-02
       6306               0.300000E-02
       6307               0.300000E-02
       6308               0.300000E-02
       6309               0.300000E-02
       6310               0.300000E-02
       6311               0.300000E-02
       6312               0.300000E-02
       6313               0.300000E-02
       6314               0.300000E-02
       6315               0.300000E-02
       6316               0.300000E-02
       6317               0.300000E-02
       6318               0.300000E-02
       6319               0.300000E-02
       6320               0.300000E-02
       6321               0.300000E-02
       6322               0.300000E-02
       6323               0.300000E-02
       6324               0.300000E-02
       6325               0.300000E-02
       6326               0.300000E-02
       6327               0.300000E-02
       6328               0.300000E-02
       6329               0.300000E-02
       6330               0.266549E-01
       6331               0.300000E-02
       6332               0.300000E-02
       6333               0.695243E-02
       6334               0.198573E-01
       6335               0.299905E-01
       6336               0.300000E-02
       6337               0.300000E-02
       6338               0.300000E-02
       6339               0.300000E-02
       6340               0.300000E-02
       6341               0.300000E-02
       6342               0.300000E-02
       6343               0.300000E-02
       6344               0.300000E-02
       6345               0.300000E-02
       6346               0.300000E-02
       6347               0.300000E-02
       6348               0.300000E-02
       6349               0.300000E-02
       6350               0.300000E-02
       6351               0.300000E-02
       6352               0.300000E-02
       6353               0.300000E-02
       6354               0.300000E-02
       6355               0.300000E-02
       6356               0.300000E-02
       6357               0.300000E-02
       6358               0.126419E-01
       6359               0.385266E-02
       6360               0.300000E-02
       6361               0.300000E-02
       6362               0.300000E-02
       6363               0.300000E-02
       6364               0.300000E-02
       6365               0.300000E-02
       6366               0.300000E-02
       6367               0.268163E-01
       6368               0.364810E-01
       6369               0.300000E-02
       6370               0.300000E-02
       6371               0.300000E-02
       6372               0.300000E-02
       6373               0.300000E-02
       6374               0.201682E-01
       6375               0.106380E-01
       6376               0.300000E-02
       6377               0.104693E-01
       6378               0.300000E-02
       6379               0.300000E-02
       6380               0.410847E-02
       6381               0.300000E-02
       6382               0.169590E-01
       6383               0.320157E-02
       6384               0.300000E-02
       6385               0.299286E-01
       6386               0.300000E-02
       6387               0.300000E-02
       6388               0.383016E-02
       6389               0.126530E-01
       6390               0.300000E-02
       6391               0.300000E-02
       6392               0.280668E-01
       6393               0.282860E-01
       6394               0.300000E-02
       6395               0.805200E-01
       6396               0.300000E-02
       6397               0.300000E-02
       6398               0.300000E-02
       6399               0.300000E-02
       6400               0.300000E-02
       6401               0.300000E-02
       6402               0.300000E-02
       6403               0.300000E-02
       6404               0.300000E-02
       6405               0.109794E-01
       6406               0.523451E-01
       6407               0.582814E-01
       6408               0.233971E-01
       6409               0.300000E-02
       6410               0.300000E-02
       6411               0.300000E-02
       6412               0.300000E-02
       6413               0.300000E-02
       6414               0.300000E-02
       6415               0.300000E-02
       6416               0.300000E-02
       6417               0.300000E-02
       6418               0.300000E-02
       6419               0.300000E-02
       6420               0.300000E-02
       6421               0.300000E-02
       6422               0.300000E-02
       6423               0.300000E-02
       6424               0.300000E-02
       6425               0.300000E-02
       6426               0.300000E-02
       6427               0.300000E-02
       6428               0.300000E-02
       6429               0.300000E-02
       6430               0.248264E-01
       6431               0.596761E-01
       6432               0.300000E-02
       6433               0.300000E-02
       6434               0.114414E-01
       6435               0.300000E-02
       6436               0.300000E-02
       6437               0.300000E-02
       6438               0.300000E-02
       6439               0.300000E-02
       6440               0.300000E-02
       6441               0.300000E-02
       6442               0.397603E-02
       6443               0.300000E-02
       6444               0.300000E-02
       6445               0.300000E-02
       6446               0.300000E-02
       6447               0.300000E-02
       6448               0.300000E-02
       6449               0.406960E-02
       6450               0.300000E-02
       6451               0.300000E-02
       6452               0.300000E-02
       6453               0.300000E-02
       6454               0.300000E-02
       6455               0.300000E-02
       6456               0.300000E-02
       6457               0.300000E-02
       6458               0.300000E-02
       6459               0.300000E-02
       6460               0.300000E-02
       6461               0.300000E-02
       6462               0.300697E-02
       6463               0.300000E-02
       6464               0.216522E-01
       6465               0.300000E-02
       6466               0.300000E-02
       6467               0.300000E-02
       6468               0.300000E-02
       6469               0.300000E-02
       6470               0.300000E-02
       6471               0.300000E-02
       6472               0.300000E-02
       6473               0.300000E-02
       6474               0.300000E-02
       6475               0.741206E-02
       6476               0.300000E-02
       6477               0.300000E-02
       6478               0.809166E-02
       6479               0.300000E-02
       6480               0.300000E-02
       6481               0.300000E-02
       6482               0.157964E-01
       6483               0.160731E-01
       6484               0.300000E-02
       6485               0.300000E-02
       6486               0.300000E-02
       6487               0.300000E-02
       6488               0.300000E-02
       6489               0.300000E-02
       6490               0.300000E-02
       6491               0.300000E-02
       6492               0.300000E-02
       6493               0.300000E-02
       6494               0.300000E-02
       6495               0.300000E-02
       6496               0.300000E-02
       6497               0.300000E-02
       6498               0.300000E-02
       6499               0.300000E-02
       6500               0.300000E-02
       6501               0.300000E-02
       6502               0.300000E-02
       6503               0.300000E-02
       6504               0.300000E-02
       6505               0.300000E-02
       6506               0.300000E-02
       6507               0.300000E-02
       6508               0.300000E-02
       6509               0.300000E-02
       6510               0.201052E-01
       6511               0.277235E-01
       6512               0.300000E-02
       6513               0.300000E-02
       6514               0.300000E-02
       6515               0.300000E-02
       6516               0.300000E-02
       6517               0.300000E-02
       6518               0.300000E-02
       6519               0.300000E-02
       6520               0.300000E-02
       6521               0.300000E-02
       6522               0.300000E-02
       6523               0.300000E-02
       6524               0.300000E-02
       6525               0.300000E-02
       6526               0.300000E-02
       6527               0.300000E-02
       6528               0.300000E-02
       6529               0.300000E-02
       6530               0.300000E-02
       6531               0.300000E-02
       6532               0.300000E-02
       6533               0.300000E-02
       6534               0.300000E-02
       6535               0.300000E-02
       6536               0.300000E-02
       6537               0.300000E-02
       6538               0.300000E-02
       6539               0.300000E-02
       6540               0.300000E-02
       6541               0.300000E-02
       6542               0.300000E-02
       6543               0.300000E-02
       6544               0.300000E-02
       6545               0.320411E-02
       6546               0.197479E-01
       6547               0.300000E-02
       6548               0.300000E-02
       6549               0.300000E-02
       6550               0.300000E-02
       6551               0.300000E-02
       6552               0.300000E-02
       6553               0.300000E-02
       6554               0.300000E-02
       6555               0.300000E-02
       6556               0.300000E-02
       6557               0.300000E-02
       6558               0.300000E-02
       6559               0.300000E-02
       6560               0.300000E-02
       6561               0.334999E-01
       6562               0.300000E-02
       6563               0.300000E-02
       6564               0.300000E-02
       6565               0.300000E-02
       6566               0.300000E-02
       6567               0.300000E-02
       6568               0.300000E-02
       6569               0.300000E-02
       6570               0.300000E-02
       6571               0.300000E-02
       6572               0.300000E-02
       6573               0.300000E-02
       6574               0.300000E-02
       6575               0.300000E-02
       6576               0.300000E-02
       6577               0.300000E-02
       6578               0.300000E-02
       6579               0.300000E-02
       6580               0.300000E-02
       6581               0.300000E-02
       6582               0.300000E-02
       6583               0.300000E-02
       6584               0.300000E-02
       6585               0.300000E-02
       6586               0.300000E-02
       6587               0.300000E-02
       6588               0.300000E-02
       6589               0.300000E-02
       6590               0.300000E-02
       6591               0.300000E-02
       6592               0.300000E-02
       6593               0.300000E-02
       6594               0.300000E-02
       6595               0.300000E-02
       6596               0.300000E-02
       6597               0.300000E-02
       6598               0.300000E-02
       6599               0.300000E-02
       6600               0.300000E-02
       6601               0.300000E-02
       6602               0.300000E-02
       6603               0.300000E-02
       6604               0.300000E-02
       6605               0.300000E-02
       6606               0.300000E-02
       6607               0.300000E-02
       6608               0.300000E-02
       6609               0.300000E-02
       6610               0.300000E-02
       6611               0.300000E-02
       6612               0.300000E-02
       6613               0.300000E-02
       6614               0.300000E-02
       6615               0.300000E-02
       6616               0.300000E-02
       6617               0.300000E-02
       6618               0.300000E-02
       6619               0.300000E-02
       6620               0.300000E-02
       6621               0.300000E-02
       6622               0.300000E-02
       6623               0.300000E-02
       6624               0.300000E-02
       6625               0.300000E-02
       6626               0.300000E-02
       6627               0.300000E-02
       6628               0.300000E-02
       6629               0.300000E-02
       6630               0.300000E-02
       6631               0.300000E-02
       6632               0.300000E-02
       6633               0.300000E-02
       6634               0.300000E-02
       6635               0.300000E-02
       6636               0.300000E-02
       6637               0.300000E-02
       6638               0.300000E-02
       6639               0.300000E-02
       6640               0.300000E-02
       6641               0.300000E-02
       6642               0.300000E-02
       6643               0.300000E-02
       6644               0.300000E-02
       6645               0.300000E-02
       6646               0.300000E-02
       6647               0.300000E-02
       6648               0.300000E-02
       6649               0.300000E-02
       6650               0.300000E-02
       6651               0.300000E-02
       6652               0.300000E-02
       6653               0.300000E-02
       6654               0.300000E-02
       6655               0.300000E-02
       6656               0.300000E-02
       6657               0.300000E-02
       6658               0.300000E-02
       6659               0.300000E-02
       6660               0.300000E-02
       6661               0.300000E-02
       6662               0.300000E-02
       6663               0.300000E-02
       6664               0.300000E-02
       6665               0.300000E-02
       6666               0.300000E-02
       6667               0.300000E-02
       6668               0.617041E-02
       6669               0.300000E-02
       6670               0.300000E-02
       6671               0.300000E-02
       6672               0.300000E-02
       6673               0.300000E-02
       6674               0.300000E-02
       6675               0.300000E-02
       6676               0.300000E-02
       6677               0.300000E-02
       6678               0.300000E-02
       6679               0.300000E-02
       6680               0.300000E-02
       6681               0.300000E-02
       6682               0.300000E-02
       6683               0.300000E-02
       6684               0.300000E-02
       6685               0.300000E-02
       6686               0.300000E-02
       6687               0.300000E-02
       6688               0.300000E-02
       6689               0.300000E-02
       6690               0.300000E-02
       6691               0.300000E-02
       6692               0.300000E-02
       6693               0.300000E-02
       6694               0.300000E-02
       6695               0.300000E-02
       6696               0.300000E-02
       6697               0.300000E-02
       6698               0.300000E-02
       6699               0.300000E-02
       6700               0.300000E-02
       6701               0.300000E-02
       6702               0.300000E-02
       6703               0.300000E-02
       6704               0.300000E-02
       6705               0.300000E-02
       6706               0.118110E-01
       6707               0.476046E-02
       6708               0.300000E-02
       6709               0.300000E-02
       6710               0.300000E-02
       6711               0.652424E-02
       6712               0.112891E-01
       6713               0.159613E-01
       6714               0.126685E-01
       6715               0.300000E-02
       6716               0.300000E-02
       6717               0.300000E-02
       6718               0.300000E-02
       6719               0.300000E-02
       6720               0.300000E-02
       6721               0.300000E-02
       6722               0.300000E-02
       6723               0.300000E-02
       6724               0.300000E-02
       6725               0.300000E-02
       6726               0.300000E-02
       6727               0.300000E-02
       6728               0.300000E-02
       6729               0.300000E-02
       6730               0.300000E-02
       6731               0.300000E-02
       6732               0.300000E-02
       6733               0.300000E-02
       6734               0.300000E-02
       6735               0.300000E-02
       6736               0.300000E-02
       6737               0.300000E-02
       6738               0.300000E-02
       6739               0.300000E-02
       6740               0.300000E-02
       6741               0.300000E-02
       6742               0.300000E-02
       6743               0.300000E-02
       6744               0.300000E-02
       6745               0.300000E-02
       6746               0.300000E-02
       6747               0.300000E-02
       6748               0.300000E-02
       6749               0.300000E-02
       6750               0.300000E-02
       6751               0.300000E-02
       6752               0.300000E-02
       6753               0.300000E-02
       6754               0.300000E-02
       6755               0.300000E-02
       6756               0.300000E-02
       6757               0.178554E-01
       6758               0.140078E-01
       6759               0.223326E-01
       6760               0.872516E-01
       6761               0.388869E-01
       6762               0.300000E-02
       6763               0.300000E-02
       6764               0.300000E-02
       6765               0.300000E-02
       6766               0.300000E-02
       6767               0.300000E-02
       6768               0.300000E-02
       6769               0.300000E-02
       6770               0.300000E-02
       6771               0.300000E-02
       6772               0.300000E-02
       6773               0.300000E-02
       6774               0.300000E-02
       6775               0.300000E-02
       6776               0.300000E-02
       6777               0.300000E-02
       6778               0.300000E-02
       6779               0.300000E-02
       6780               0.300000E-02
       6781               0.300000E-02
       6782               0.300000E-02
       6783               0.300000E-02
       6784               0.300000E-02
       6785               0.300000E-02
       6786               0.300000E-02
       6787               0.300000E-02
       6788               0.300000E-02
       6789               0.300000E-02
       6790               0.300000E-02
       6791               0.300000E-02
       6792               0.300000E-02
       6793               0.300000E-02
       6794               0.300000E-02
       6795               0.300000E-02
       6796               0.300000E-02
       6797               0.300000E-02
       6798               0.300000E-02
       6799               0.300000E-02
       6800               0.300000E-02
       6801               0.300000E-02
       6802               0.300000E-02
       6803               0.300000E-02
       6804               0.300000E-02
       6805               0.300000E-02
       6806               0.300000E-02
       6807               0.300000E-02
       6808               0.300000E-02
       6809               0.300000E-02
       6810               0.300000E-02
       6811               0.300000E-02
       6812               0.300000E-02
       6813               0.300000E-02
       6814               0.300000E-02
       6815               0.300000E-02
       6816               0.300000E-02
       6817               0.300000E-02
       6818               0.300000E-02
       6819               0.300000E-02
       6820               0.300000E-02
       6821               0.300000E-02
       6822               0.300000E-02
       6823               0.300000E-02
       6824               0.300000E-02
       6825               0.300000E-02
       6826               0.300000E-02
       6827               0.607758E-02
       6828               0.435054E-02
       6829               0.300000E-02
       6830               0.300000E-02
       6831               0.300000E-02
       6832               0.300000E-02
       6833               0.300000E-02
       6834               0.300000E-02
       6835               0.300000E-02
       6836               0.300000E-02
       6837               0.300000E-02
       6838               0.300000E-02
       6839               0.300000E-02
       6840               0.300000E-02
       6841               0.715907E-02
       6842               0.300000E-02
       6843               0.300000E-02
       6844               0.300000E-02
       6845               0.300000E-02
       6846               0.300000E-02
       6847               0.300000E-02
       6848               0.300000E-02
       6849               0.300000E-02
       6850               0.300000E-02
       6851               0.300000E-02
       6852               0.300000E-02
       6853               0.300000E-02
       6854               0.300000E-02
       6855               0.300000E-02
       6856               0.300000E-02
       6857               0.300000E-02
       6858               0.300000E-02
       6859               0.300000E-02
       6860               0.300000E-02
       6861               0.300000E-02
       6862               0.300000E-02
       6863               0.300000E-02
       6864               0.300000E-02
       6865               0.300000E-02
       6866               0.300000E-02
       6867               0.300000E-02
       6868               0.300000E-02
       6869               0.300000E-02
       6870               0.300000E-02
       6871               0.300000E-02
       6872               0.300000E-02
       6873               0.300000E-02
       6874               0.300000E-02
       6875               0.300000E-02
       6876               0.300000E-02
       6877               0.300000E-02
       6878               0.300000E-02
       6879               0.300000E-02
       6880               0.300000E-02
       6881               0.300000E-02
       6882               0.300000E-02
       6883               0.300000E-02
       6884               0.300000E-02
       6885               0.300000E-02
       6886               0.300000E-02
       6887               0.300000E-02
       6888               0.300000E-02
       6889               0.300000E-02
       6890               0.300000E-02
       6891               0.300000E-02
       6892               0.300000E-02
       6893               0.300000E-02
       6894               0.300000E-02
       6895               0.300000E-02
       6896               0.300000E-02
       6897               0.300000E-02
       6898               0.300000E-02
       6899               0.300000E-02
       6900               0.300000E-02
       6901               0.300000E-02
       6902               0.300000E-02
       6903               0.300000E-02
       6904               0.300000E-02
       6905               0.300000E-02
       6906               0.300000E-02
       6907               0.300000E-02
       6908               0.300000E-02
       6909               0.300000E-02
       6910               0.300000E-02
       6911               0.300000E-02
       6912               0.300000E-02
       6913               0.300000E-02
       6914               0.300000E-02
       6915               0.300000E-02
       6916               0.300000E-02
       6917               0.300000E-02
       6918               0.300000E-02
       6919               0.300000E-02
       6920               0.300000E-02
       6921               0.300000E-02
       6922               0.300000E-02
       6923               0.300000E-02
       6924               0.129153E-01
       6925               0.300000E-02
       6926               0.300000E-02
       6927               0.445061E-01
       6928               0.300000E-02
       6929               0.723708E-01
       6930               0.300000E-02
       6931               0.670289E-01
       6932               0.300000E-02
       6933               0.739946E-01
       6934               0.831593E-01
       6935               0.947551E-01
       6936               0.364934E-01
       6937               0.300000E-02
       6938               0.300000E-02
       6939               0.300000E-02
       6940               0.300000E-02
       6941               0.300000E-02
       6942               0.300000E-02
       6943               0.300000E-02
       6944               0.300000E-02
       6945               0.300000E-02
       6946               0.300000E-02
       6947               0.300000E-02
       6948               0.300000E-02
       6949               0.300000E-02
       6950               0.300000E-02
       6951               0.300000E-02
       6952               0.300000E-02
       6953               0.300000E-02
       6954               0.300000E-02
       6955               0.300000E-02
       6956               0.300000E-02
       6957               0.300000E-02
       6958               0.300000E-02
       6959               0.300000E-02
       6960               0.300000E-02
       6961               0.300000E-02
       6962               0.300000E-02
       6963               0.300000E-02
       6964               0.300000E-02
       6965               0.300000E-02
       6966               0.300000E-02
       6967               0.300000E-02
       6968               0.300000E-02
       6969               0.300000E-02
       6970               0.300000E-02
       6971               0.300000E-02
       6972               0.300000E-02
       6973               0.300000E-02
       6974               0.300000E-02
       6975               0.300000E-02
       6976               0.300000E-02
       6977               0.300000E-02
       6978               0.300000E-02
       6979               0.300000E-02
       6980               0.300000E-02
       6981               0.300000E-02
       6982               0.300000E-02
       6983               0.300000E-02
       6984               0.300000E-02
       6985               0.300000E-02
       6986               0.300000E-02
       6987               0.300000E-02
       6988               0.300000E-02
       6989               0.300000E-02
       6990               0.300000E-02
       6991               0.300000E-02
       6992               0.300000E-02
       6993               0.300000E-02
       6994               0.300000E-02
       6995               0.300000E-02
       6996               0.300000E-02
       6997               0.300000E-02
       6998               0.300000E-02
       6999               0.300000E-02
       7000               0.300000E-02
       7001               0.300000E-02
       7002               0.300000E-02
       7003               0.300000E-02
       7004               0.300000E-02
       7005               0.300000E-02
       7006               0.300000E-02
       7007               0.300000E-02
       7008               0.300000E-02
       7009               0.300000E-02
       7010               0.300000E-02
       7011               0.300000E-02
       7012               0.300000E-02
       7013               0.300000E-02
       7014               0.300000E-02
       7015               0.300000E-02
       7016               0.300000E-02
       7017               0.300000E-02
       7018               0.300000E-02
       7019               0.300000E-02
       7020               0.300000E-02
       7021               0.300000E-02
       7022               0.300000E-02
       7023               0.300000E-02
       7024               0.300000E-02
       7025               0.300000E-02
       7026               0.300000E-02
       7027               0.300000E-02
       7028               0.300000E-02
       7029               0.300000E-02
       7030               0.300000E-02
       7031               0.300000E-02
       7032               0.300000E-02
       7033               0.300000E-02
       7034               0.300000E-02
       7035               0.300000E-02
       7036               0.300000E-02
       7037               0.300000E-02
       7038               0.300000E-02
       7039               0.300000E-02
       7040               0.300000E-02
       7041               0.300000E-02
       7042               0.300000E-02
       7043               0.300000E-02
       7044               0.300000E-02
       7045               0.300000E-02
       7046               0.300000E-02
       7047               0.300000E-02
       7048               0.300000E-02
       7049               0.300000E-02
       7050               0.300000E-02
       7051               0.300000E-02
       7052               0.300000E-02
       7053               0.300000E-02
       7054               0.300000E-02
       7055               0.300000E-02
       7056               0.300000E-02
       7057               0.300000E-02
       7058               0.300000E-02
       7059               0.300000E-02
       7060               0.300000E-02
       7061               0.300000E-02
       7062               0.300000E-02
       7063               0.300000E-02
       7064               0.300000E-02
       7065               0.300000E-02
       7066               0.300000E-02
       7067               0.300000E-02
       7068               0.300000E-02
       7069               0.300000E-02
       7070               0.300000E-02
       7071               0.300000E-02
       7072               0.300000E-02
       7073               0.300000E-02
       7074               0.300000E-02
       7075               0.300000E-02
       7076               0.300000E-02
       7077               0.300000E-02
       7078               0.300000E-02
       7079               0.300000E-02
       7080               0.300000E-02
       7081               0.300000E-02
       7082               0.300000E-02
       7083               0.300000E-02
       7084               0.300000E-02
       7085               0.300000E-02
       7086               0.300000E-02
       7087               0.300000E-02
       7088               0.300000E-02
       7089               0.300000E-02
       7090               0.300000E-02
       7091               0.300000E-02
       7092               0.300000E-02
       7093               0.300000E-02
       7094               0.300000E-02
       7095               0.300000E-02
       7096               0.300000E-02
       7097               0.300000E-02
       7098               0.300000E-02
       7099               0.300000E-02
       7100               0.300000E-02
       7101               0.300000E-02
       7102               0.300000E-02
       7103               0.300000E-02
       7104               0.300000E-02
       7105               0.300000E-02
       7106               0.300000E-02
       7107               0.300000E-02
       7108               0.300000E-02
       7109               0.300000E-02
       7110               0.300000E-02
       7111               0.300000E-02
       7112               0.300000E-02
       7113               0.300000E-02
       7114               0.300000E-02
       7115               0.300000E-02
       7116               0.300000E-02
       7117               0.300000E-02
       7118               0.300000E-02
       7119               0.300000E-02
       7120               0.300000E-02
       7121               0.300000E-02
       7122               0.300000E-02
       7123               0.300000E-02
       7124               0.300000E-02
       7125               0.300000E-02
       7126               0.300000E-02
       7127               0.300000E-02
       7128               0.300000E-02
       7129               0.300000E-02
       7130               0.300000E-02
       7131               0.300000E-02
       7132               0.300000E-02
       7133               0.300000E-02
       7134               0.300000E-02
       7135               0.300000E-02
       7136               0.300000E-02
       7137               0.300000E-02
       7138               0.300000E-02
       7139               0.300000E-02
       7140               0.300000E-02
       7141               0.300000E-02
       7142               0.300000E-02
       7143               0.300000E-02
       7144               0.300000E-02
       7145               0.300000E-02
       7146               0.300000E-02
       7147               0.300000E-02
       7148               0.300000E-02
       7149               0.300000E-02
       7150               0.300000E-02
       7151               0.300000E-02
       7152               0.300000E-02
       7153               0.300000E-02
       7154               0.300000E-02
       7155               0.300000E-02
       7156               0.300000E-02
       7157               0.300000E-02
       7158               0.300000E-02
       7159               0.300000E-02
       7160               0.300000E-02
       7161               0.300000E-02
       7162               0.300000E-02
       7163               0.300000E-02
       7164               0.300000E-02
       7165               0.300000E-02
       7166               0.300000E-02
       7167               0.300000E-02
       7168               0.300000E-02
       7169               0.300000E-02
       7170               0.300000E-02
       7171               0.300000E-02
       7172               0.300000E-02
       7173               0.300000E-02
       7174               0.300000E-02
       7175               0.300000E-02
       7176               0.300000E-02
       7177               0.300000E-02
       7178               0.300000E-02
       7179               0.300000E-02
       7180               0.300000E-02
       7181               0.300000E-02
       7182               0.300000E-02
       7183               0.300000E-02
       7184               0.300000E-02
       7185               0.300000E-02
       7186               0.300000E-02
       7187               0.300000E-02
       7188               0.300000E-02
       7189               0.300000E-02
       7190               0.300000E-02
       7191               0.300000E-02
       7192               0.300000E-02
       7193               0.300000E-02
       7194               0.300000E-02
       7195               0.300000E-02
       7196               0.300000E-02
       7197               0.300000E-02
       7198               0.300000E-02
       7199               0.300000E-02
       7200               0.300000E-02
       7201               0.300000E-02
       7202               0.300000E-02
       7203               0.300000E-02
       7204               0.300000E-02
       7205               0.300000E-02
       7206               0.300000E-02
       7207               0.300000E-02
       7208               0.300000E-02
       7209               0.300000E-02
       7210               0.300000E-02
       7211               0.300000E-02
       7212               0.300000E-02
       7213               0.300000E-02
       7214               0.300000E-02
       7215               0.300000E-02
       7216               0.300000E-02
       7217               0.300000E-02
       7218               0.300000E-02
       7219               0.300000E-02
       7220               0.300000E-02
       7221               0.300000E-02
       7222               0.300000E-02
       7223               0.300000E-02
       7224               0.300000E-02
       7225               0.300000E-02
       7226               0.300000E-02
       7227               0.300000E-02
       7228               0.300000E-02
       7229               0.300000E-02
       7230               0.300000E-02
       7231               0.300000E-02
       7232               0.300000E-02
       7233               0.300000E-02
       7234               0.300000E-02
       7235               0.300000E-02
       7236               0.300000E-02
       7237               0.300000E-02
       7238               0.300000E-02
       7239               0.300000E-02
       7240               0.300000E-02
       7241               0.300000E-02
       7242               0.300000E-02
       7243               0.300000E-02
       7244               0.300000E-02
       7245               0.300000E-02
       7246               0.300000E-02
       7247               0.300000E-02
       7248               0.300000E-02
       7249               0.300000E-02
       7250               0.300000E-02
       7251               0.300000E-02
       7252               0.300000E-02
       7253               0.300000E-02
       7254               0.300000E-02
       7255               0.300000E-02
       7256               0.300000E-02
       7257               0.300000E-02
       7258               0.300000E-02
       7259               0.300000E-02
       7260               0.300000E-02
       7261               0.300000E-02
       7262               0.300000E-02
       7263               0.300000E-02
       7264               0.300000E-02
       7265               0.300000E-02
       7266               0.300000E-02
       7267               0.300000E-02
       7268               0.300000E-02
       7269               0.300000E-02
       7270               0.300000E-02
       7271               0.300000E-02
       7272               0.300000E-02
       7273               0.300000E-02
       7274               0.300000E-02
       7275               0.300000E-02
       7276               0.300000E-02
       7277               0.300000E-02
       7278               0.300000E-02
       7279               0.300000E-02
       7280               0.300000E-02
       7281               0.300000E-02
       7282               0.300000E-02
       7283               0.300000E-02
       7284               0.300000E-02
       7285               0.300000E-02
       7286               0.300000E-02
       7287               0.300000E-02
       7288               0.300000E-02
       7289               0.300000E-02
       7290               0.300000E-02
       7291               0.300000E-02
       7292               0.300000E-02
       7293               0.300000E-02
       7294               0.300000E-02
       7295               0.300000E-02
       7296               0.300000E-02
       7297               0.300000E-02
       7298               0.300000E-02
       7299               0.300000E-02
       7300               0.300000E-02
       7301               0.300000E-02
       7302               0.300000E-02
       7303               0.300000E-02
       7304               0.300000E-02
       7305               0.300000E-02
       7306               0.300000E-02
       7307               0.300000E-02
       7308               0.300000E-02
       7309               0.300000E-02
       7310               0.300000E-02
       7311               0.300000E-02
       7312               0.300000E-02
       7313               0.300000E-02
       7314               0.300000E-02
       7315               0.300000E-02
       7316               0.300000E-02
       7317               0.300000E-02
       7318               0.300000E-02
       7319               0.300000E-02
       7320               0.300000E-02
       7321               0.300000E-02
       7322               0.300000E-02
       7323               0.300000E-02
       7324               0.300000E-02
       7325               0.300000E-02
       7326               0.300000E-02
       7327               0.300000E-02
       7328               0.300000E-02
       7329               0.300000E-02
       7330               0.300000E-02
       7331               0.300000E-02
       7332               0.300000E-02
       7333               0.300000E-02
       7334               0.300000E-02
       7335               0.300000E-02
       7336               0.300000E-02
       7337               0.300000E-02
       7338               0.300000E-02
       7339               0.300000E-02
       7340               0.300000E-02
       7341               0.300000E-02
       7342               0.300000E-02
       7343               0.300000E-02
       7344               0.300000E-02
       7345               0.300000E-02
       7346               0.300000E-02
       7347               0.300000E-02
       7348               0.300000E-02
       7349               0.300000E-02
       7350               0.300000E-02
       7351               0.300000E-02
       7352               0.300000E-02
       7353               0.300000E-02
       7354               0.300000E-02
       7355               0.300000E-02
       7356               0.300000E-02
       7357               0.300000E-02
       7358               0.300000E-02
       7359               0.300000E-02
       7360               0.300000E-02
       7361               0.300000E-02
       7362               0.300000E-02
       7363               0.300000E-02
       7364               0.300000E-02
       7365               0.300000E-02
       7366               0.300000E-02
       7367               0.300000E-02
       7368               0.300000E-02
       7369               0.300000E-02
       7370               0.300000E-02
       7371               0.300000E-02
       7372               0.300000E-02
       7373               0.300000E-02
       7374               0.300000E-02
       7375               0.300000E-02
       7376               0.300000E-02
       7377               0.300000E-02
       7378               0.300000E-02
       7379               0.300000E-02
       7380               0.300000E-02
       7381               0.300000E-02
       7382               0.300000E-02
       7383               0.300000E-02
       7384               0.300000E-02
       7385               0.300000E-02
       7386               0.300000E-02
       7387               0.300000E-02
       7388               0.300000E-02
       7389               0.300000E-02
       7390               0.300000E-02
       7391               0.300000E-02
       7392               0.300000E-02
       7393               0.300000E-02
       7394               0.300000E-02
       7395               0.300000E-02
       7396               0.300000E-02
       7397               0.300000E-02
       7398               0.300000E-02
       7399               0.300000E-02
       7400               0.300000E-02
       7401               0.300000E-02
       7402               0.300000E-02
       7403               0.300000E-02
       7404               0.300000E-02
       7405               0.300000E-02
       7406               0.300000E-02
       7407               0.300000E-02
       7408               0.300000E-02
       7409               0.300000E-02
       7410               0.300000E-02
       7411               0.300000E-02
       7412               0.300000E-02
       7413               0.300000E-02
       7414               0.300000E-02
       7415               0.300000E-02
       7416               0.300000E-02
       7417               0.300000E-02
       7418               0.300000E-02
       7419               0.300000E-02
       7420               0.300000E-02
       7421               0.300000E-02
       7422               0.300000E-02
       7423               0.300000E-02
       7424               0.300000E-02
       7425               0.300000E-02
       7426               0.300000E-02
       7427               0.300000E-02
       7428               0.300000E-02
       7429               0.300000E-02
       7430               0.300000E-02
       7431               0.300000E-02
       7432               0.300000E-02
       7433               0.300000E-02
       7434               0.300000E-02
       7435               0.300000E-02
       7436               0.300000E-02
       7437               0.300000E-02
       7438               0.300000E-02
       7439               0.300000E-02
       7440               0.300000E-02
       7441               0.300000E-02
       7442               0.300000E-02
       7443               0.300000E-02
       7444               0.300000E-02
       7445               0.300000E-02
       7446               0.300000E-02
       7447               0.300000E-02
       7448               0.300000E-02
       7449               0.300000E-02
       7450               0.300000E-02
       7451               0.300000E-02
       7452               0.300000E-02
       7453               0.300000E-02
       7454               0.300000E-02
       7455               0.300000E-02
       7456               0.300000E-02
       7457               0.300000E-02
       7458               0.300000E-02
       7459               0.300000E-02
       7460               0.300000E-02
       7461               0.300000E-02
       7462               0.300000E-02
       7463               0.300000E-02
       7464               0.300000E-02
       7465               0.300000E-02
       7466               0.300000E-02
       7467               0.300000E-02
       7468               0.300000E-02
       7469               0.300000E-02
       7470               0.300000E-02
       7471               0.300000E-02
       7472               0.300000E-02
       7473               0.300000E-02
       7474               0.300000E-02
       7475               0.300000E-02
       7476               0.300000E-02
       7477               0.300000E-02
       7478               0.300000E-02
       7479               0.300000E-02
       7480               0.300000E-02
       7481               0.300000E-02
       7482               0.300000E-02
       7483               0.300000E-02
       7484               0.300000E-02
       7485               0.300000E-02
       7486               0.300000E-02
       7487               0.300000E-02
       7488               0.300000E-02
       7489               0.300000E-02
       7490               0.300000E-02
       7491               0.300000E-02
       7492               0.300000E-02
       7493               0.300000E-02
       7494               0.300000E-02
       7495               0.300000E-02
       7496               0.300000E-02
       7497               0.300000E-02
       7498               0.300000E-02
       7499               0.300000E-02
       7500               0.300000E-02
       7501               0.300000E-02
       7502               0.300000E-02
       7503               0.300000E-02
       7504               0.300000E-02
       7505               0.300000E-02
       7506               0.300000E-02
       7507               0.300000E-02
       7508               0.300000E-02
       7509               0.300000E-02
       7510               0.300000E-02
       7511               0.300000E-02
       7512               0.300000E-02
       7513               0.300000E-02
       7514               0.300000E-02
       7515               0.300000E-02
       7516               0.300000E-02
       7517               0.300000E-02
       7518               0.300000E-02
       7519               0.300000E-02
       7520               0.300000E-02
       7521               0.300000E-02
       7522               0.300000E-02
       7523               0.300000E-02
       7524               0.300000E-02
       7525               0.300000E-02
       7526               0.300000E-02
       7527               0.300000E-02
       7528               0.300000E-02
       7529               0.300000E-02
       7530               0.300000E-02
       7531               0.300000E-02
       7532               0.300000E-02
       7533               0.300000E-02
       7534               0.300000E-02
       7535               0.300000E-02
       7536               0.300000E-02
       7537               0.300000E-02
       7538               0.300000E-02
       7539               0.300000E-02
       7540               0.300000E-02
       7541               0.300000E-02
       7542               0.300000E-02
       7543               0.300000E-02
       7544               0.300000E-02
       7545               0.300000E-02
       7546               0.300000E-02
       7547               0.300000E-02
       7548               0.300000E-02
       7549               0.300000E-02
       7550               0.300000E-02
       7551               0.300000E-02
       7552               0.300000E-02
       7553               0.300000E-02
       7554               0.300000E-02
       7555               0.300000E-02
       7556               0.300000E-02
       7557               0.300000E-02
       7558               0.300000E-02
       7559               0.300000E-02
       7560               0.300000E-02
       7561               0.300000E-02
       7562               0.300000E-02
       7563               0.300000E-02
       7564               0.300000E-02
       7565               0.300000E-02
       7566               0.300000E-02
       7567               0.300000E-02
       7568               0.300000E-02
       7569               0.300000E-02
       7570               0.300000E-02
       7571               0.300000E-02
       7572               0.300000E-02
       7573               0.300000E-02
       7574               0.300000E-02
       7575               0.300000E-02
       7576               0.300000E-02
       7577               0.300000E-02
       7578               0.300000E-02
       7579               0.300000E-02
       7580               0.300000E-02
       7581               0.300000E-02
       7582               0.300000E-02
       7583               0.300000E-02
       7584               0.300000E-02
       7585               0.300000E-02
       7586               0.300000E-02
       7587               0.300000E-02
       7588               0.300000E-02
       7589               0.300000E-02
       7590               0.300000E-02
       7591               0.300000E-02
       7592               0.300000E-02
       7593               0.300000E-02
       7594               0.300000E-02
       7595               0.300000E-02
       7596               0.300000E-02
       7597               0.300000E-02
       7598               0.300000E-02
       7599               0.300000E-02
       7600               0.300000E-02
       7601               0.300000E-02
       7602               0.300000E-02
       7603               0.300000E-02
       7604               0.300000E-02
       7605               0.300000E-02
       7606               0.300000E-02
       7607               0.300000E-02
       7608               0.300000E-02
       7609               0.300000E-02
       7610               0.300000E-02
       7611               0.300000E-02
       7612               0.300000E-02
       7613               0.300000E-02
       7614               0.300000E-02
       7615               0.300000E-02
       7616               0.300000E-02
       7617               0.300000E-02
       7618               0.300000E-02
       7619               0.300000E-02
       7620               0.300000E-02
       7621               0.300000E-02
       7622               0.300000E-02
       7623               0.300000E-02
       7624               0.300000E-02
       7625               0.300000E-02
       7626               0.300000E-02
       7627               0.300000E-02
       7628               0.300000E-02
       7629               0.300000E-02
       7630               0.300000E-02
       7631               0.300000E-02
       7632               0.300000E-02
       7633               0.300000E-02
       7634               0.300000E-02
       7635               0.300000E-02
       7636               0.300000E-02
       7637               0.300000E-02
       7638               0.300000E-02
       7639               0.300000E-02
       7640               0.300000E-02
       7641               0.300000E-02
       7642               0.300000E-02
       7643               0.300000E-02
       7644               0.300000E-02
       7645               0.300000E-02
       7646               0.300000E-02
       7647               0.300000E-02
       7648               0.300000E-02
       7649               0.300000E-02
       7650               0.300000E-02
       7651               0.300000E-02
       7652               0.300000E-02
       7653               0.300000E-02
       7654               0.300000E-02
       7655               0.300000E-02
       7656               0.300000E-02
       7657               0.300000E-02
       7658               0.300000E-02
       7659               0.300000E-02
       7660               0.300000E-02
       7661               0.300000E-02
       7662               0.300000E-02
       7663               0.300000E-02
       7664               0.300000E-02
       7665               0.300000E-02
       7666               0.300000E-02
       7667               0.300000E-02
       7668               0.300000E-02
       7669               0.300000E-02
       7670               0.300000E-02
       7671               0.300000E-02
       7672               0.300000E-02
       7673               0.300000E-02
       7674               0.300000E-02
       7675               0.300000E-02
       7676               0.300000E-02
       7677               0.300000E-02
       7678               0.300000E-02
       7679               0.300000E-02
       7680               0.300000E-02
       7681               0.300000E-02
       7682               0.300000E-02
       7683               0.300000E-02
       7684               0.300000E-02
       7685               0.300000E-02
       7686               0.300000E-02
       7687               0.300000E-02
       7688               0.300000E-02
       7689               0.300000E-02
       7690               0.300000E-02
       7691               0.300000E-02
       7692               0.300000E-02
       7693               0.300000E-02
       7694               0.300000E-02
       7695               0.300000E-02
       7696               0.300000E-02
       7697               0.300000E-02
       7698               0.300000E-02
       7699               0.300000E-02
       7700               0.300000E-02
       7701               0.300000E-02
       7702               0.300000E-02
       7703               0.300000E-02
       7704               0.300000E-02
       7705               0.300000E-02
       7706               0.300000E-02
       7707               0.300000E-02
       7708               0.300000E-02
       7709               0.300000E-02
       7710               0.300000E-02
       7711               0.300000E-02
       7712               0.300000E-02
       7713               0.300000E-02
       7714               0.300000E-02
       7715               0.300000E-02
       7716               0.300000E-02
       7717               0.300000E-02
       7718               0.300000E-02
       7719               0.300000E-02
       7720               0.300000E-02
       7721               0.300000E-02
       7722               0.300000E-02
       7723               0.300000E-02
       7724               0.300000E-02
       7725               0.300000E-02
       7726               0.300000E-02
       7727               0.300000E-02
       7728               0.300000E-02
       7729               0.300000E-02
       7730               0.300000E-02
       7731               0.300000E-02
       7732               0.300000E-02
       7733               0.300000E-02
       7734               0.300000E-02
       7735               0.300000E-02
       7736               0.300000E-02
       7737               0.300000E-02
       7738               0.300000E-02
       7739               0.300000E-02
       7740               0.300000E-02
       7741               0.300000E-02
       7742               0.300000E-02
       7743               0.300000E-02
       7744               0.300000E-02
       7745               0.300000E-02
       7746               0.300000E-02
       7747               0.300000E-02
       7748               0.300000E-02
       7749               0.300000E-02
       7750               0.300000E-02
       7751               0.300000E-02
       7752               0.300000E-02
       7753               0.300000E-02
       7754               0.300000E-02
       7755               0.300000E-02
       7756               0.300000E-02
       7757               0.300000E-02
       7758               0.300000E-02
       7759               0.300000E-02
       7760               0.300000E-02
       7761               0.300000E-02
       7762               0.300000E-02
       7763               0.300000E-02
       7764               0.300000E-02
       7765               0.300000E-02
       7766               0.300000E-02
       7767               0.300000E-02
       7768               0.300000E-02
       7769               0.300000E-02
       7770               0.300000E-02
       7771               0.300000E-02
       7772               0.300000E-02
       7773               0.300000E-02
       7774               0.300000E-02
       7775               0.300000E-02
       7776               0.300000E-02
       7777               0.300000E-02
       7778               0.300000E-02
       7779               0.300000E-02
       7780               0.300000E-02
       7781               0.300000E-02
       7782               0.300000E-02
       7783               0.300000E-02
       7784               0.300000E-02
       7785               0.300000E-02
       7786               0.300000E-02
       7787               0.300000E-02
       7788               0.300000E-02
       7789               0.300000E-02
       7790               0.300000E-02
       7791               0.300000E-02
       7792               0.300000E-02
       7793               0.300000E-02
       7794               0.300000E-02
       7795               0.300000E-02
       7796               0.300000E-02
       7797               0.300000E-02
       7798               0.300000E-02
       7799               0.300000E-02
       7800               0.300000E-02
       7801               0.300000E-02
       7802               0.300000E-02
       7803               0.300000E-02
       7804               0.300000E-02
       7805               0.300000E-02
       7806               0.300000E-02
       7807               0.300000E-02
       7808               0.300000E-02
       7809               0.300000E-02
       7810               0.300000E-02
       7811               0.300000E-02
       7812               0.300000E-02
       7813               0.300000E-02
       7814               0.300000E-02
       7815               0.300000E-02
       7816               0.300000E-02
       7817               0.300000E-02
       7818               0.300000E-02
       7819               0.300000E-02
       7820               0.300000E-02
       7821               0.300000E-02
       7822               0.300000E-02
       7823               0.300000E-02
       7824               0.300000E-02
       7825               0.300000E-02
       7826               0.300000E-02
       7827               0.300000E-02
       7828               0.300000E-02
       7829               0.300000E-02
       7830               0.300000E-02
       7831               0.300000E-02
       7832               0.300000E-02
       7833               0.300000E-02
       7834               0.300000E-02
       7835               0.300000E-02
       7836               0.300000E-02
       7837               0.300000E-02
       7838               0.300000E-02
       7839               0.300000E-02
       7840               0.300000E-02
       7841               0.300000E-02
       7842               0.300000E-02
       7843               0.300000E-02
       7844               0.300000E-02
       7845               0.300000E-02
       7846               0.300000E-02
       7847               0.300000E-02
       7848               0.300000E-02
       7849               0.300000E-02
       7850               0.300000E-02
       7851               0.300000E-02
       7852               0.300000E-02
       7853               0.300000E-02
       7854               0.300000E-02
       7855               0.300000E-02
       7856               0.300000E-02
       7857               0.300000E-02
       7858               0.300000E-02
       7859               0.300000E-02
       7860               0.300000E-02
       7861               0.300000E-02
       7862               0.300000E-02
       7863               0.300000E-02
       7864               0.300000E-02
       7865               0.300000E-02
       7866               0.300000E-02
       7867               0.300000E-02
       7868               0.300000E-02
       7869               0.300000E-02
       7870               0.300000E-02
       7871               0.300000E-02
       7872               0.300000E-02
       7873               0.300000E-02
       7874               0.300000E-02
       7875               0.300000E-02
       7876               0.300000E-02
       7877               0.300000E-02
       7878               0.300000E-02
       7879               0.300000E-02
       7880               0.300000E-02
       7881               0.300000E-02
       7882               0.300000E-02
       7883               0.300000E-02
       7884               0.300000E-02
       7885               0.300000E-02
       7886               0.300000E-02
       7887               0.300000E-02
       7888               0.300000E-02
       7889               0.300000E-02
       7890               0.300000E-02
       7891               0.300000E-02
       7892               0.300000E-02
       7893               0.300000E-02
       7894               0.300000E-02
       7895               0.300000E-02
       7896               0.300000E-02
       7897               0.300000E-02
       7898               0.300000E-02
       7899               0.300000E-02
       7900               0.300000E-02
       7901               0.300000E-02
       7902               0.300000E-02
       7903               0.300000E-02
       7904               0.300000E-02
       7905               0.300000E-02
       7906               0.300000E-02
       7907               0.300000E-02
       7908               0.300000E-02
       7909               0.300000E-02
       7910               0.300000E-02
       7911               0.300000E-02
       7912               0.300000E-02
       7913               0.300000E-02
       7914               0.300000E-02
       7915               0.300000E-02
       7916               0.300000E-02
       7917               0.300000E-02
       7918               0.300000E-02
       7919               0.300000E-02
       7920               0.300000E-02
       7921               0.300000E-02
       7922               0.300000E-02
       7923               0.300000E-02
       7924               0.300000E-02
       7925               0.300000E-02
       7926               0.300000E-02
       7927               0.300000E-02
       7928               0.300000E-02
       7929               0.300000E-02
       7930               0.300000E-02
       7931               0.300000E-02
       7932               0.300000E-02
       7933               0.300000E-02
       7934               0.300000E-02
       7935               0.300000E-02
       7936               0.300000E-02
       7937               0.300000E-02
       7938               0.300000E-02
       7939               0.300000E-02
       7940               0.300000E-02
       7941               0.300000E-02
       7942               0.300000E-02
       7943               0.300000E-02
       7944               0.300000E-02
       7945               0.300000E-02
       7946               0.300000E-02
       7947               0.300000E-02
       7948               0.300000E-02
       7949               0.300000E-02
       7950               0.300000E-02
       7951               0.300000E-02
       7952               0.300000E-02
       7953               0.300000E-02
       7954               0.300000E-02
       7955               0.300000E-02
       7956               0.300000E-02
       7957               0.300000E-02
       7958               0.300000E-02
       7959               0.300000E-02
       7960               0.300000E-02
       7961               0.300000E-02
       7962               0.300000E-02
       7963               0.300000E-02
       7964               0.300000E-02
       7965               0.300000E-02
       7966               0.300000E-02
       7967               0.300000E-02
       7968               0.300000E-02
       7969               0.300000E-02
       7970               0.300000E-02
       7971               0.300000E-02
       7972               0.300000E-02
       7973               0.300000E-02
       7974               0.300000E-02
       7975               0.300000E-02
       7976               0.300000E-02
       7977               0.300000E-02
       7978               0.300000E-02
       7979               0.300000E-02
       7980               0.300000E-02
       7981               0.300000E-02
       7982               0.300000E-02
       7983               0.300000E-02
       7984               0.300000E-02
       7985               0.300000E-02
       7986               0.300000E-02
       7987               0.300000E-02
       7988               0.300000E-02
       7989               0.300000E-02
       7990               0.300000E-02
       7991               0.300000E-02
       7992               0.300000E-02
       7993               0.300000E-02
       7994               0.300000E-02
       7995               0.300000E-02
       7996               0.300000E-02
       7997               0.300000E-02
       7998               0.300000E-02
       7999               0.300000E-02
       8000               0.300000E-02
       8001               0.300000E-02
       8002               0.300000E-02
       8003               0.300000E-02
       8004               0.300000E-02
       8005               0.300000E-02
       8006               0.300000E-02
       8007               0.300000E-02
       8008               0.300000E-02
       8009               0.300000E-02
       8010               0.300000E-02
       8011               0.300000E-02
       8012               0.300000E-02
       8013               0.300000E-02
       8014               0.300000E-02
       8015               0.300000E-02
       8016               0.300000E-02
       8017               0.300000E-02
       8018               0.300000E-02
       8019               0.300000E-02
       8020               0.300000E-02
       8021               0.300000E-02
       8022               0.300000E-02
       8023               0.300000E-02
       8024               0.300000E-02
       8025               0.300000E-02
       8026               0.300000E-02
       8027               0.300000E-02
       8028               0.300000E-02
       8029               0.300000E-02
       8030               0.300000E-02
       8031               0.300000E-02
       8032               0.300000E-02
       8033               0.300000E-02
       8034               0.300000E-02
       8035               0.300000E-02
       8036               0.300000E-02
       8037               0.300000E-02
       8038               0.300000E-02
       8039               0.300000E-02
       8040               0.300000E-02
       8041               0.300000E-02
       8042               0.300000E-02
       8043               0.300000E-02
       8044               0.300000E-02
       8045               0.300000E-02
       8046               0.300000E-02
       8047               0.300000E-02
       8048               0.300000E-02
       8049               0.300000E-02
       8050               0.300000E-02
       8051               0.300000E-02
       8052               0.300000E-02
       8053               0.300000E-02
       8054               0.300000E-02
       8055               0.300000E-02
       8056               0.300000E-02
       8057               0.300000E-02
       8058               0.300000E-02
       8059               0.300000E-02
       8060               0.300000E-02
       8061               0.300000E-02
       8062               0.300000E-02
       8063               0.300000E-02
       8064               0.300000E-02
       8065               0.300000E-02
       8066               0.300000E-02
       8067               0.300000E-02
       8068               0.300000E-02
       8069               0.300000E-02
       8070               0.300000E-02
       8071               0.300000E-02
       8072               0.300000E-02
       8073               0.300000E-02
       8074               0.300000E-02
       8075               0.300000E-02
       8076               0.300000E-02
       8077               0.300000E-02
       8078               0.300000E-02
       8079               0.300000E-02
       8080               0.300000E-02
       8081               0.300000E-02
       8082               0.300000E-02
       8083               0.300000E-02
       8084               0.300000E-02
       8085               0.300000E-02
       8086               0.300000E-02
       8087               0.300000E-02
       8088               0.300000E-02
       8089               0.300000E-02
       8090               0.300000E-02
       8091               0.300000E-02
       8092               0.300000E-02
       8093               0.300000E-02
       8094               0.300000E-02
       8095               0.300000E-02
       8096               0.300000E-02
       8097               0.300000E-02
       8098               0.300000E-02
       8099               0.300000E-02
       8100               0.300000E-02
       8101               0.300000E-02
       8102               0.300000E-02
       8103               0.300000E-02
       8104               0.300000E-02
       8105               0.300000E-02
       8106               0.300000E-02
       8107               0.300000E-02
       8108               0.300000E-02
       8109               0.300000E-02
       8110               0.300000E-02
       8111               0.300000E-02
       8112               0.300000E-02
       8113               0.300000E-02
       8114               0.300000E-02
       8115               0.300000E-02
       8116               0.300000E-02
       8117               0.300000E-02
       8118               0.300000E-02
       8119               0.300000E-02
       8120               0.300000E-02
       8121               0.300000E-02
       8122               0.300000E-02
       8123               0.300000E-02
       8124               0.300000E-02
       8125               0.300000E-02
       8126               0.300000E-02
       8127               0.300000E-02
       8128               0.300000E-02
       8129               0.300000E-02
       8130               0.300000E-02
       8131               0.300000E-02
       8132               0.300000E-02
       8133               0.300000E-02
       8134               0.300000E-02
       8135               0.300000E-02
       8136               0.300000E-02
       8137               0.300000E-02
       8138               0.300000E-02
       8139               0.300000E-02
       8140               0.300000E-02
       8141               0.300000E-02
       8142               0.300000E-02
       8143               0.300000E-02
       8144               0.300000E-02
       8145               0.300000E-02
       8146               0.300000E-02
       8147               0.300000E-02
       8148               0.300000E-02
       8149               0.300000E-02
       8150               0.300000E-02
       8151               0.300000E-02
       8152               0.300000E-02
       8153               0.300000E-02
       8154               0.300000E-02
       8155               0.300000E-02
       8156               0.300000E-02
       8157               0.300000E-02
       8158               0.300000E-02
       8159               0.300000E-02
       8160               0.300000E-02
       8161               0.300000E-02
       8162               0.300000E-02
       8163               0.300000E-02
       8164               0.300000E-02
       8165               0.300000E-02
       8166               0.300000E-02
       8167               0.300000E-02
       8168               0.300000E-02
       8169               0.300000E-02
       8170               0.300000E-02
       8171               0.300000E-02
       8172               0.300000E-02
       8173               0.300000E-02
       8174               0.300000E-02
       8175               0.300000E-02
       8176               0.300000E-02
       8177               0.300000E-02
       8178               0.300000E-02
       8179               0.300000E-02
       8180               0.300000E-02
       8181               0.300000E-02
       8182               0.300000E-02
       8183               0.300000E-02
       8184               0.300000E-02
       8185               0.300000E-02
       8186               0.300000E-02
       8187               0.300000E-02
       8188               0.300000E-02
       8189               0.300000E-02
       8190               0.300000E-02
       8191               0.300000E-02
       8192               0.300000E-02
       8193               0.300000E-02
       8194               0.300000E-02
       8195               0.300000E-02
       8196               0.300000E-02
       8197               0.300000E-02
       8198               0.300000E-02
       8199               0.300000E-02
       8200               0.300000E-02
       8201               0.300000E-02
       8202               0.300000E-02
       8203               0.300000E-02
       8204               0.300000E-02
       8205               0.300000E-02
       8206               0.300000E-02
       8207               0.300000E-02
       8208               0.300000E-02
       8209               0.300000E-02
       8210               0.300000E-02
       8211               0.300000E-02
       8212               0.300000E-02
       8213               0.300000E-02
       8214               0.300000E-02
       8215               0.300000E-02
       8216               0.300000E-02
       8217               0.300000E-02
       8218               0.300000E-02
       8219               0.300000E-02
       8220               0.300000E-02
       8221               0.300000E-02
       8222               0.300000E-02
       8223               0.300000E-02
       8224               0.300000E-02
       8225               0.300000E-02
       8226               0.300000E-02
       8227               0.300000E-02
       8228               0.300000E-02
       8229               0.300000E-02
       8230               0.300000E-02
       8231               0.300000E-02
       8232               0.300000E-02
       8233               0.300000E-02
       8234               0.300000E-02
       8235               0.300000E-02
       8236               0.300000E-02
       8237               0.300000E-02
       8238               0.300000E-02
       8239               0.300000E-02
       8240               0.300000E-02
       8241               0.300000E-02
       8242               0.300000E-02
       8243               0.300000E-02
       8244               0.300000E-02
       8245               0.300000E-02
       8246               0.300000E-02
       8247               0.300000E-02
       8248               0.300000E-02
       8249               0.300000E-02
       8250               0.300000E-02
       8251               0.300000E-02
       8252               0.300000E-02
       8253               0.300000E-02
       8254               0.300000E-02
       8255               0.300000E-02
       8256               0.300000E-02
       8257               0.300000E-02
       8258               0.300000E-02
       8259               0.300000E-02
       8260               0.300000E-02
       8261               0.300000E-02
       8262               0.300000E-02
       8263               0.300000E-02
       8264               0.300000E-02
       8265               0.300000E-02
       8266               0.300000E-02
       8267               0.300000E-02
       8268               0.300000E-02
       8269               0.300000E-02
       8270               0.300000E-02
       8271               0.300000E-02
       8272               0.300000E-02
       8273               0.300000E-02
       8274               0.300000E-02
       8275               0.300000E-02
       8276               0.300000E-02
       8277               0.300000E-02
       8278               0.300000E-02
       8279               0.300000E-02
       8280               0.300000E-02
       8281               0.300000E-02
       8282               0.300000E-02
       8283               0.300000E-02
       8284               0.300000E-02
       8285               0.300000E-02
       8286               0.300000E-02
       8287               0.300000E-02
       8288               0.300000E-02
       8289               0.300000E-02
       8290               0.300000E-02
       8291               0.300000E-02
       8292               0.300000E-02
       8293               0.300000E-02
       8294               0.300000E-02
       8295               0.300000E-02
       8296               0.300000E-02
       8297               0.300000E-02
       8298               0.300000E-02
       8299               0.300000E-02
       8300               0.300000E-02
       8301               0.300000E-02
       8302               0.300000E-02
       8303               0.300000E-02
       8304               0.300000E-02
       8305               0.300000E-02
       8306               0.300000E-02
       8307               0.300000E-02
       8308               0.300000E-02
       8309               0.300000E-02
       8310               0.300000E-02
       8311               0.300000E-02
       8312               0.300000E-02
       8313               0.300000E-02
       8314               0.300000E-02
       8315               0.300000E-02
       8316               0.300000E-02
       8317               0.300000E-02
       8318               0.300000E-02
       8319               0.300000E-02
       8320               0.300000E-02
       8321               0.300000E-02
       8322               0.300000E-02
       8323               0.300000E-02
       8324               0.300000E-02
       8325               0.300000E-02
       8326               0.300000E-02
       8327               0.300000E-02
       8328               0.300000E-02
       8329               0.300000E-02
       8330               0.300000E-02
       8331               0.300000E-02
       8332               0.300000E-02
       8333               0.300000E-02
       8334               0.300000E-02
       8335               0.300000E-02
       8336               0.300000E-02
       8337               0.300000E-02
       8338               0.300000E-02
       8339               0.300000E-02
       8340               0.300000E-02
       8341               0.300000E-02
       8342               0.300000E-02
       8343               0.300000E-02
       8344               0.300000E-02
       8345               0.300000E-02
       8346               0.300000E-02
       8347               0.300000E-02
       8348               0.300000E-02
       8349               0.300000E-02
       8350               0.300000E-02
       8351               0.300000E-02
       8352               0.300000E-02
       8353               0.300000E-02
       8354               0.300000E-02
       8355               0.300000E-02
       8356               0.300000E-02
       8357               0.300000E-02
       8358               0.300000E-02
       8359               0.300000E-02
       8360               0.300000E-02
       8361               0.300000E-02
       8362               0.300000E-02
       8363               0.300000E-02
       8364               0.300000E-02
       8365               0.300000E-02
       8366               0.300000E-02
       8367               0.300000E-02
       8368               0.300000E-02
       8369               0.300000E-02
       8370               0.300000E-02
       8371               0.300000E-02
       8372               0.300000E-02
       8373               0.300000E-02
       8374               0.300000E-02
       8375               0.300000E-02
       8376               0.300000E-02
       8377               0.300000E-02
       8378               0.300000E-02
       8379               0.300000E-02
       8380               0.300000E-02
       8381               0.300000E-02
       8382               0.300000E-02
       8383               0.300000E-02
       8384               0.300000E-02
       8385               0.300000E-02
       8386               0.300000E-02
       8387               0.300000E-02
       8388               0.300000E-02
       8389               0.300000E-02
       8390               0.300000E-02
       8391               0.300000E-02
       8392               0.300000E-02
       8393               0.300000E-02
       8394               0.300000E-02
       8395               0.300000E-02
       8396               0.300000E-02
       8397               0.300000E-02
       8398               0.300000E-02
       8399               0.300000E-02
       8400               0.300000E-02
       8401               0.300000E-02
       8402               0.300000E-02
       8403               0.300000E-02
       8404               0.300000E-02
       8405               0.300000E-02
       8406               0.300000E-02
       8407               0.300000E-02
       8408               0.300000E-02
       8409               0.300000E-02
       8410               0.300000E-02
       8411               0.300000E-02
       8412               0.300000E-02
       8413               0.300000E-02
       8414               0.300000E-02
       8415               0.300000E-02
       8416               0.300000E-02
       8417               0.300000E-02
       8418               0.300000E-02
       8419               0.300000E-02
       8420               0.300000E-02
       8421               0.300000E-02
       8422               0.300000E-02
       8423               0.300000E-02
       8424               0.300000E-02
       8425               0.300000E-02
       8426               0.300000E-02
       8427               0.300000E-02
       8428               0.300000E-02
       8429               0.300000E-02
       8430               0.300000E-02
       8431               0.300000E-02
       8432               0.300000E-02
       8433               0.300000E-02
       8434               0.300000E-02
       8435               0.300000E-02
       8436               0.300000E-02
       8437               0.300000E-02
       8438               0.300000E-02
       8439               0.300000E-02
       8440               0.300000E-02
       8441               0.300000E-02
       8442               0.300000E-02
       8443               0.300000E-02
       8444               0.300000E-02
       8445               0.300000E-02
       8446               0.300000E-02
       8447               0.300000E-02
       8448               0.300000E-02
       8449               0.300000E-02
       8450               0.300000E-02
       8451               0.300000E-02
       8452               0.300000E-02
       8453               0.300000E-02
       8454               0.300000E-02
       8455               0.300000E-02
       8456               0.300000E-02
       8457               0.300000E-02
       8458               0.300000E-02
       8459               0.300000E-02
       8460               0.300000E-02
       8461               0.300000E-02
       8462               0.300000E-02
       8463               0.300000E-02
       8464               0.300000E-02
       8465               0.300000E-02
       8466               0.300000E-02
       8467               0.300000E-02
       8468               0.300000E-02
       8469               0.300000E-02
       8470               0.300000E-02
       8471               0.300000E-02
       8472               0.300000E-02
       8473               0.300000E-02
       8474               0.300000E-02
       8475               0.300000E-02
       8476               0.300000E-02
       8477               0.300000E-02
       8478               0.300000E-02
       8479               0.300000E-02
       8480               0.300000E-02
       8481               0.300000E-02
       8482               0.300000E-02
       8483               0.300000E-02
       8484               0.300000E-02
       8485               0.300000E-02
       8486               0.300000E-02
       8487               0.300000E-02
       8488               0.300000E-02
       8489               0.300000E-02
       8490               0.300000E-02
       8491               0.300000E-02
       8492               0.300000E-02
       8493               0.300000E-02
       8494               0.300000E-02
       8495               0.300000E-02
       8496               0.300000E-02
       8497               0.300000E-02
       8498               0.300000E-02
       8499               0.300000E-02
       8500               0.300000E-02
       8501               0.300000E-02
       8502               0.300000E-02
       8503               0.300000E-02
       8504               0.300000E-02
       8505               0.300000E-02
       8506               0.300000E-02
       8507               0.300000E-02
       8508               0.300000E-02
       8509               0.300000E-02
       8510               0.300000E-02
       8511               0.300000E-02
       8512               0.300000E-02
       8513               0.300000E-02
       8514               0.300000E-02
       8515               0.300000E-02
       8516               0.300000E-02
       8517               0.300000E-02
       8518               0.300000E-02
       8519               0.300000E-02
       8520               0.300000E-02
       8521               0.300000E-02
       8522               0.300000E-02
       8523               0.300000E-02
       8524               0.300000E-02
       8525               0.300000E-02
       8526               0.300000E-02
       8527               0.300000E-02
       8528               0.300000E-02
       8529               0.300000E-02
       8530               0.300000E-02
       8531               0.300000E-02
       8532               0.300000E-02
       8533               0.300000E-02
       8534               0.300000E-02
       8535               0.300000E-02
       8536               0.300000E-02
       8537               0.300000E-02
       8538               0.300000E-02
       8539               0.300000E-02
       8540               0.300000E-02
       8541               0.300000E-02
       8542               0.300000E-02
       8543               0.300000E-02
       8544               0.300000E-02
       8545               0.300000E-02
       8546               0.300000E-02
       8547               0.300000E-02
       8548               0.300000E-02
       8549               0.300000E-02
       8550               0.300000E-02
       8551               0.300000E-02
       8552               0.300000E-02
       8553               0.300000E-02
       8554               0.300000E-02
       8555               0.300000E-02
       8556               0.300000E-02
       8557               0.300000E-02
       8558               0.300000E-02
       8559               0.300000E-02
       8560               0.300000E-02
       8561               0.300000E-02
       8562               0.300000E-02
       8563               0.300000E-02
       8564               0.300000E-02
       8565               0.300000E-02
       8566               0.300000E-02
       8567               0.300000E-02
       8568               0.300000E-02
       8569               0.300000E-02
       8570               0.300000E-02
       8571               0.300000E-02
       8572               0.300000E-02
       8573               0.300000E-02
       8574               0.300000E-02
       8575               0.300000E-02
       8576               0.300000E-02
       8577               0.300000E-02
       8578               0.300000E-02
       8579               0.300000E-02
       8580               0.300000E-02
       8581               0.300000E-02
       8582               0.300000E-02
       8583               0.300000E-02
       8584               0.300000E-02
       8585               0.300000E-02
       8586               0.300000E-02
       8587               0.300000E-02
       8588               0.300000E-02
       8589               0.300000E-02
       8590               0.300000E-02
       8591               0.300000E-02
       8592               0.300000E-02
       8593               0.300000E-02
       8594               0.300000E-02
       8595               0.300000E-02
       8596               0.300000E-02
       8597               0.300000E-02
       8598               0.300000E-02
       8599               0.300000E-02
       8600               0.300000E-02
       8601               0.300000E-02
       8602               0.300000E-02
       8603               0.300000E-02
       8604               0.300000E-02
       8605               0.300000E-02
       8606               0.300000E-02
       8607               0.300000E-02
       8608               0.300000E-02
       8609               0.300000E-02
       8610               0.300000E-02
       8611               0.300000E-02
       8612               0.300000E-02
       8613               0.300000E-02
       8614               0.300000E-02
       8615               0.300000E-02
       8616               0.300000E-02
       8617               0.300000E-02
       8618               0.300000E-02
       8619               0.300000E-02
       8620               0.300000E-02
       8621               0.300000E-02
       8622               0.300000E-02
       8623               0.300000E-02
       8624               0.300000E-02
       8625               0.300000E-02
       8626               0.300000E-02
       8627               0.300000E-02
       8628               0.300000E-02
       8629               0.300000E-02
       8630               0.300000E-02
       8631               0.300000E-02
       8632               0.300000E-02
       8633               0.300000E-02
       8634               0.300000E-02
       8635               0.300000E-02
       8636               0.300000E-02
       8637               0.300000E-02
       8638               0.300000E-02
       8639               0.300000E-02
       8640               0.300000E-02
       8641               0.300000E-02
       8642               0.300000E-02
       8643               0.300000E-02
       8644               0.300000E-02
       8645               0.300000E-02
       8646               0.300000E-02
       8647               0.300000E-02
       8648               0.300000E-02
       8649               0.300000E-02
       8650               0.300000E-02
       8651               0.300000E-02
       8652               0.300000E-02
       8653               0.300000E-02
       8654               0.300000E-02
       8655               0.300000E-02
       8656               0.300000E-02
       8657               0.300000E-02
       8658               0.300000E-02
       8659               0.300000E-02
       8660               0.300000E-02
       8661               0.300000E-02
       8662               0.300000E-02
       8663               0.300000E-02
       8664               0.300000E-02
       8665               0.300000E-02
       8666               0.300000E-02
       8667               0.300000E-02
       8668               0.300000E-02
       8669               0.300000E-02
       8670               0.300000E-02
       8671               0.300000E-02
       8672               0.300000E-02
       8673               0.300000E-02
       8674               0.300000E-02
       8675               0.300000E-02
       8676               0.300000E-02
       8677               0.300000E-02
       8678               0.300000E-02
       8679               0.300000E-02
       8680               0.300000E-02
       8681               0.300000E-02
       8682               0.300000E-02
       8683               0.300000E-02
       8684               0.300000E-02
       8685               0.300000E-02
       8686               0.300000E-02
       8687               0.300000E-02
       8688               0.300000E-02
       8689               0.300000E-02
       8690               0.300000E-02
       8691               0.300000E-02
       8692               0.300000E-02
       8693               0.300000E-02
       8694               0.300000E-02
       8695               0.300000E-02
       8696               0.300000E-02
       8697               0.300000E-02
       8698               0.300000E-02
       8699               0.300000E-02
       8700               0.300000E-02
       8701               0.300000E-02
       8702               0.300000E-02
       8703               0.300000E-02
       8704               0.300000E-02
       8705               0.300000E-02
       8706               0.300000E-02
       8707               0.300000E-02
       8708               0.300000E-02
       8709               0.300000E-02
       8710               0.300000E-02
       8711               0.300000E-02
       8712               0.300000E-02
       8713               0.300000E-02
       8714               0.300000E-02
       8715               0.300000E-02
       8716               0.300000E-02
       8717               0.300000E-02
       8718               0.300000E-02
       8719               0.300000E-02
       8720               0.300000E-02
       8721               0.300000E-02
       8722               0.300000E-02
       8723               0.300000E-02
       8724               0.300000E-02
       8725               0.300000E-02
       8726               0.300000E-02
       8727               0.300000E-02
       8728               0.300000E-02
       8729               0.300000E-02
       8730               0.300000E-02
       8731               0.300000E-02
       8732               0.300000E-02
       8733               0.300000E-02
       8734               0.300000E-02
       8735               0.300000E-02
       8736               0.300000E-02
       8737               0.300000E-02
       8738               0.300000E-02
       8739               0.300000E-02
       8740               0.300000E-02
       8741               0.300000E-02
       8742               0.300000E-02
       8743               0.300000E-02
       8744               0.300000E-02
       8745               0.300000E-02
       8746               0.300000E-02
       8747               0.300000E-02
       8748               0.300000E-02
       8749               0.300000E-02
       8750               0.300000E-02
       8751               0.300000E-02
       8752               0.300000E-02
       8753               0.300000E-02
       8754               0.300000E-02
       8755               0.300000E-02
       8756               0.300000E-02
       8757               0.300000E-02
       8758               0.300000E-02
       8759               0.300000E-02
       8760               0.300000E-02
       8761               0.300000E-02
       8762               0.300000E-02
       8763               0.300000E-02
       8764               0.300000E-02
       8765               0.300000E-02
       8766               0.300000E-02
       8767               0.300000E-02
       8768               0.300000E-02
       8769               0.300000E-02
       8770               0.300000E-02
       8771               0.300000E-02
       8772               0.300000E-02
       8773               0.300000E-02
       8774               0.300000E-02
       8775               0.300000E-02
       8776               0.300000E-02
       8777               0.300000E-02
       8778               0.300000E-02
       8779               0.300000E-02
       8780               0.300000E-02
       8781               0.300000E-02
       8782               0.300000E-02
       8783               0.300000E-02
       8784               0.300000E-02
       8785               0.300000E-02
       8786               0.300000E-02
       8787               0.300000E-02
       8788               0.300000E-02
       8789               0.300000E-02
       8790               0.300000E-02
       8791               0.300000E-02
       8792               0.300000E-02
       8793               0.300000E-02
       8794               0.300000E-02
       8795               0.300000E-02
       8796               0.300000E-02
       8797               0.300000E-02
       8798               0.300000E-02
       8799               0.300000E-02
       8800               0.300000E-02
       8801               0.300000E-02
       8802               0.300000E-02
       8803               0.300000E-02
       8804               0.300000E-02
       8805               0.300000E-02
       8806               0.300000E-02
       8807               0.300000E-02
       8808               0.300000E-02
       8809               0.300000E-02
       8810               0.300000E-02
       8811               0.300000E-02
       8812               0.300000E-02
       8813               0.300000E-02
       8814               0.300000E-02
       8815               0.300000E-02
       8816               0.300000E-02
       8817               0.300000E-02
       8818               0.300000E-02
       8819               0.300000E-02
       8820               0.300000E-02
       8821               0.300000E-02
       8822               0.300000E-02
       8823               0.300000E-02
       8824               0.300000E-02
       8825               0.300000E-02
       8826               0.300000E-02
       8827               0.300000E-02
       8828               0.300000E-02
       8829               0.300000E-02
       8830               0.300000E-02
       8831               0.300000E-02
       8832               0.300000E-02
       8833               0.300000E-02
       8834               0.300000E-02
       8835               0.300000E-02
       8836               0.300000E-02
       8837               0.300000E-02
       8838               0.300000E-02
       8839               0.300000E-02
       8840               0.300000E-02
       8841               0.300000E-02
       8842               0.300000E-02
       8843               0.300000E-02
       8844               0.300000E-02
       8845               0.300000E-02
       8846               0.300000E-02
       8847               0.300000E-02
       8848               0.300000E-02
       8849               0.300000E-02
       8850               0.300000E-02
       8851               0.300000E-02
       8852               0.300000E-02
       8853               0.300000E-02
       8854               0.300000E-02
       8855               0.300000E-02
       8856               0.300000E-02
       8857               0.300000E-02
       8858               0.300000E-02
       8859               0.300000E-02
       8860               0.300000E-02
       8861               0.300000E-02
       8862               0.300000E-02
       8863               0.300000E-02
       8864               0.300000E-02
       8865               0.300000E-02
       8866               0.300000E-02
       8867               0.300000E-02
       8868               0.300000E-02
       8869               0.300000E-02
       8870               0.300000E-02
       8871               0.300000E-02
       8872               0.300000E-02
       8873               0.300000E-02
       8874               0.300000E-02
       8875               0.300000E-02
       8876               0.300000E-02
       8877               0.300000E-02
       8878               0.300000E-02
       8879               0.300000E-02
       8880               0.300000E-02
       8881               0.300000E-02
       8882               0.300000E-02
       8883               0.300000E-02
       8884               0.300000E-02
       8885               0.300000E-02
       8886               0.300000E-02
       8887               0.300000E-02
       8888               0.300000E-02
       8889               0.300000E-02
       8890               0.300000E-02
       8891               0.300000E-02
       8892               0.300000E-02
       8893               0.300000E-02
       8894               0.300000E-02
       8895               0.300000E-02
       8896               0.300000E-02
       8897               0.300000E-02
       8898               0.300000E-02
       8899               0.300000E-02
       8900               0.300000E-02
       8901               0.300000E-02
       8902               0.300000E-02
       8903               0.300000E-02
       8904               0.300000E-02
       8905               0.300000E-02
       8906               0.300000E-02
       8907               0.300000E-02
       8908               0.300000E-02
       8909               0.300000E-02
       8910               0.300000E-02
       8911               0.300000E-02
       8912               0.300000E-02
       8913               0.300000E-02
       8914               0.300000E-02
       8915               0.300000E-02
       8916               0.300000E-02
       8917               0.300000E-02
       8918               0.300000E-02
       8919               0.300000E-02
       8920               0.300000E-02
       8921               0.300000E-02
       8922               0.300000E-02
       8923               0.300000E-02
       8924               0.300000E-02
       8925               0.300000E-02
       8926               0.300000E-02
       8927               0.300000E-02
       8928               0.300000E-02
       8929               0.300000E-02
       8930               0.300000E-02
       8931               0.300000E-02
       8932               0.300000E-02
       8933               0.300000E-02
       8934               0.300000E-02
       8935               0.300000E-02
       8936               0.300000E-02
       8937               0.300000E-02
       8938               0.300000E-02
       8939               0.300000E-02
       8940               0.300000E-02
       8941               0.300000E-02
       8942               0.300000E-02
       8943               0.300000E-02
       8944               0.300000E-02
       8945               0.300000E-02
       8946               0.300000E-02
       8947               0.300000E-02
       8948               0.300000E-02
       8949               0.300000E-02
       8950               0.300000E-02
       8951               0.300000E-02
       8952               0.300000E-02
       8953               0.300000E-02
       8954               0.300000E-02
       8955               0.300000E-02
       8956               0.300000E-02
       8957               0.300000E-02
       8958               0.300000E-02
       8959               0.300000E-02
       8960               0.300000E-02
       8961               0.300000E-02
       8962               0.300000E-02
       8963               0.300000E-02
       8964               0.300000E-02
       8965               0.300000E-02
       8966               0.300000E-02
       8967               0.300000E-02
       8968               0.300000E-02
       8969               0.300000E-02
       8970               0.300000E-02
       8971               0.300000E-02
       8972               0.300000E-02
       8973               0.300000E-02
       8974               0.300000E-02
       8975               0.300000E-02
       8976               0.300000E-02
       8977               0.300000E-02
       8978               0.300000E-02
       8979               0.300000E-02
       8980               0.300000E-02
       8981               0.300000E-02
       8982               0.300000E-02
       8983               0.300000E-02
       8984               0.300000E-02
       8985               0.300000E-02
       8986               0.300000E-02
       8987               0.300000E-02
       8988               0.300000E-02
       8989               0.300000E-02
       8990               0.300000E-02
       8991               0.300000E-02
       8992               0.300000E-02
       8993               0.300000E-02
       8994               0.300000E-02
       8995               0.300000E-02
       8996               0.300000E-02
       8997               0.300000E-02
       8998               0.300000E-02
       8999               0.300000E-02
       9000               0.300000E-02
       9001               0.300000E-02
       9002               0.300000E-02
       9003               0.300000E-02
       9004               0.300000E-02
       9005               0.300000E-02
       9006               0.300000E-02
       9007               0.300000E-02
       9008               0.300000E-02
       9009               0.300000E-02
       9010               0.300000E-02
       9011               0.300000E-02
       9012               0.300000E-02
       9013               0.300000E-02
       9014               0.300000E-02
       9015               0.300000E-02
       9016               0.300000E-02
       9017               0.300000E-02
       9018               0.300000E-02
       9019               0.300000E-02
       9020               0.300000E-02
       9021               0.300000E-02
       9022               0.300000E-02
       9023               0.300000E-02
       9024               0.300000E-02
       9025               0.300000E-02
       9026               0.300000E-02
       9027               0.300000E-02
       9028               0.300000E-02
       9029               0.300000E-02
       9030               0.300000E-02
       9031               0.300000E-02
       9032               0.300000E-02
       9033               0.300000E-02
       9034               0.300000E-02
       9035               0.300000E-02
       9036               0.300000E-02
       9037               0.300000E-02
       9038               0.300000E-02
       9039               0.300000E-02
       9040               0.300000E-02
       9041               0.300000E-02
       9042               0.300000E-02
       9043               0.300000E-02
       9044               0.300000E-02
       9045               0.300000E-02
       9046               0.300000E-02
       9047               0.300000E-02
       9048               0.300000E-02
       9049               0.300000E-02
       9050               0.300000E-02
       9051               0.300000E-02
       9052               0.300000E-02
       9053               0.300000E-02
       9054               0.300000E-02
       9055               0.300000E-02
       9056               0.300000E-02
       9057               0.300000E-02
       9058               0.300000E-02
       9059               0.300000E-02
       9060               0.300000E-02
       9061               0.300000E-02
       9062               0.300000E-02
       9063               0.300000E-02
       9064               0.300000E-02
       9065               0.300000E-02
       9066               0.300000E-02
       9067               0.300000E-02
       9068               0.300000E-02
       9069               0.300000E-02
       9070               0.300000E-02
       9071               0.300000E-02
       9072               0.300000E-02
       9073               0.300000E-02
       9074               0.300000E-02
       9075               0.300000E-02
       9076               0.300000E-02
       9077               0.300000E-02
       9078               0.300000E-02
       9079               0.300000E-02
       9080               0.300000E-02
       9081               0.300000E-02
       9082               0.300000E-02
       9083               0.300000E-02
       9084               0.300000E-02
       9085               0.300000E-02
       9086               0.300000E-02
       9087               0.300000E-02
       9088               0.300000E-02
       9089               0.300000E-02
       9090               0.300000E-02
       9091               0.300000E-02
       9092               0.300000E-02
       9093               0.300000E-02
       9094               0.300000E-02
       9095               0.300000E-02
       9096               0.300000E-02
       9097               0.300000E-02
       9098               0.300000E-02
       9099               0.300000E-02
       9100               0.300000E-02
       9101               0.300000E-02
       9102               0.300000E-02
       9103               0.300000E-02
       9104               0.300000E-02
       9105               0.300000E-02
       9106               0.300000E-02
       9107               0.300000E-02
       9108               0.300000E-02
       9109               0.300000E-02
       9110               0.300000E-02
       9111               0.300000E-02
       9112               0.300000E-02
       9113               0.300000E-02
       9114               0.300000E-02
       9115               0.300000E-02
       9116               0.300000E-02
       9117               0.300000E-02
       9118               0.300000E-02
       9119               0.300000E-02
       9120               0.300000E-02
       9121               0.300000E-02
       9122               0.300000E-02
       9123               0.300000E-02
       9124               0.300000E-02
       9125               0.300000E-02
       9126               0.300000E-02
       9127               0.300000E-02
       9128               0.300000E-02
       9129               0.300000E-02
       9130               0.300000E-02
       9131               0.300000E-02
       9132               0.300000E-02
       9133               0.300000E-02
       9134               0.300000E-02
       9135               0.300000E-02
       9136               0.300000E-02
       9137               0.300000E-02
       9138               0.300000E-02
       9139               0.300000E-02
       9140               0.300000E-02
       9141               0.300000E-02
       9142               0.300000E-02
       9143               0.300000E-02
       9144               0.300000E-02
       9145               0.300000E-02
       9146               0.300000E-02
       9147               0.300000E-02
       9148               0.300000E-02
       9149               0.300000E-02
       9150               0.300000E-02
       9151               0.300000E-02
       9152               0.300000E-02
       9153               0.300000E-02
       9154               0.300000E-02
       9155               0.300000E-02
       9156               0.300000E-02
       9157               0.300000E-02
       9158               0.300000E-02
       9159               0.300000E-02
       9160               0.300000E-02
       9161               0.300000E-02
       9162               0.300000E-02
       9163               0.300000E-02
       9164               0.300000E-02
       9165               0.300000E-02
       9166               0.300000E-02
       9167               0.300000E-02
       9168               0.300000E-02
       9169               0.300000E-02
       9170               0.300000E-02
       9171               0.300000E-02
       9172               0.300000E-02
       9173               0.300000E-02
       9174               0.300000E-02
       9175               0.300000E-02
       9176               0.300000E-02
       9177               0.300000E-02
       9178               0.300000E-02
       9179               0.300000E-02
       9180               0.300000E-02
       9181               0.300000E-02
       9182               0.300000E-02
       9183               0.300000E-02
       9184               0.300000E-02
       9185               0.300000E-02
       9186               0.300000E-02
       9187               0.300000E-02
       9188               0.300000E-02
       9189               0.300000E-02
       9190               0.300000E-02
       9191               0.300000E-02
       9192               0.300000E-02
       9193               0.300000E-02
       9194               0.300000E-02
       9195               0.300000E-02
       9196               0.300000E-02
       9197               0.300000E-02
       9198               0.300000E-02
       9199               0.300000E-02
       9200               0.300000E-02
       9201               0.300000E-02
       9202               0.300000E-02
       9203               0.300000E-02
       9204               0.300000E-02
       9205               0.300000E-02
       9206               0.300000E-02
       9207               0.300000E-02
       9208               0.300000E-02
       9209               0.300000E-02
       9210               0.300000E-02
       9211               0.300000E-02
       9212               0.300000E-02
       9213               0.300000E-02
       9214               0.300000E-02
       9215               0.300000E-02
       9216               0.300000E-02
       9217               0.300000E-02
       9218               0.300000E-02
       9219               0.300000E-02
       9220               0.300000E-02
       9221               0.300000E-02
       9222               0.300000E-02
       9223               0.300000E-02
       9224               0.300000E-02
       9225               0.300000E-02
       9226               0.300000E-02
       9227               0.300000E-02
       9228               0.300000E-02
       9229               0.300000E-02
       9230               0.300000E-02
       9231               0.300000E-02
       9232               0.300000E-02
       9233               0.300000E-02
       9234               0.300000E-02
       9235               0.300000E-02
       9236               0.300000E-02
       9237               0.300000E-02
       9238               0.300000E-02
       9239               0.300000E-02
       9240               0.300000E-02
       9241               0.300000E-02
       9242               0.300000E-02
       9243               0.300000E-02
       9244               0.300000E-02
       9245               0.300000E-02
       9246               0.300000E-02
       9247               0.300000E-02
       9248               0.300000E-02
       9249               0.300000E-02
       9250               0.300000E-02
       9251               0.300000E-02
       9252               0.300000E-02
       9253               0.300000E-02
       9254               0.300000E-02
       9255               0.300000E-02
       9256               0.300000E-02
       9257               0.300000E-02
       9258               0.300000E-02
       9259               0.300000E-02
       9260               0.300000E-02
       9261               0.300000E-02
       9262               0.300000E-02
       9263               0.300000E-02
       9264               0.300000E-02
       9265               0.300000E-02
       9266               0.300000E-02
       9267               0.300000E-02
       9268               0.300000E-02
       9269               0.300000E-02
       9270               0.300000E-02
       9271               0.300000E-02
       9272               0.300000E-02
       9273               0.300000E-02
       9274               0.300000E-02
       9275               0.300000E-02
       9276               0.300000E-02
       9277               0.300000E-02
       9278               0.300000E-02
       9279               0.300000E-02
       9280               0.300000E-02
       9281               0.300000E-02
       9282               0.300000E-02
       9283               0.300000E-02
       9284               0.300000E-02
       9285               0.300000E-02
       9286               0.300000E-02
       9287               0.300000E-02
       9288               0.300000E-02
       9289               0.300000E-02
       9290               0.300000E-02
       9291               0.300000E-02
       9292               0.300000E-02
       9293               0.300000E-02
       9294               0.300000E-02
       9295               0.300000E-02
       9296               0.300000E-02
       9297               0.300000E-02
       9298               0.300000E-02
       9299               0.300000E-02
       9300               0.300000E-02
       9301               0.300000E-02
       9302               0.300000E-02
       9303               0.300000E-02
       9304               0.300000E-02
       9305               0.300000E-02
       9306               0.300000E-02
       9307               0.300000E-02
       9308               0.300000E-02
       9309               0.300000E-02
       9310               0.300000E-02
       9311               0.300000E-02
       9312               0.300000E-02
       9313               0.300000E-02
       9314               0.300000E-02
       9315               0.300000E-02
       9316               0.300000E-02
       9317               0.300000E-02
       9318               0.300000E-02
       9319               0.300000E-02
       9320               0.300000E-02
       9321               0.300000E-02
       9322               0.300000E-02
       9323               0.300000E-02
       9324               0.300000E-02
       9325               0.300000E-02
       9326               0.300000E-02
       9327               0.300000E-02
       9328               0.300000E-02
       9329               0.300000E-02
       9330               0.300000E-02
       9331               0.300000E-02
       9332               0.300000E-02
       9333               0.300000E-02
       9334               0.300000E-02
       9335               0.300000E-02
       9336               0.300000E-02
       9337               0.300000E-02
       9338               0.300000E-02
       9339               0.300000E-02
       9340               0.300000E-02
       9341               0.300000E-02
       9342               0.300000E-02
       9343               0.300000E-02
       9344               0.300000E-02
       9345               0.300000E-02
       9346               0.300000E-02
       9347               0.300000E-02
       9348               0.300000E-02
       9349               0.300000E-02
       9350               0.300000E-02
       9351               0.300000E-02
       9352               0.300000E-02
       9353               0.300000E-02
       9354               0.300000E-02
       9355               0.300000E-02
       9356               0.300000E-02
       9357               0.300000E-02
       9358               0.300000E-02
       9359               0.300000E-02
       9360               0.300000E-02
       9361               0.300000E-02
       9362               0.300000E-02
       9363               0.300000E-02
       9364               0.300000E-02
       9365               0.300000E-02
       9366               0.300000E-02
       9367               0.300000E-02
       9368               0.300000E-02
       9369               0.300000E-02
       9370               0.300000E-02
       9371               0.300000E-02
       9372               0.300000E-02
       9373               0.300000E-02
       9374               0.300000E-02
       9375               0.300000E-02
       9376               0.300000E-02
       9377               0.300000E-02
       9378               0.300000E-02
       9379               0.300000E-02
       9380               0.300000E-02
       9381               0.300000E-02
       9382               0.300000E-02
       9383               0.300000E-02
       9384               0.300000E-02
       9385               0.300000E-02
       9386               0.300000E-02
       9387               0.300000E-02
       9388               0.300000E-02
       9389               0.300000E-02
       9390               0.300000E-02
       9391               0.300000E-02
       9392               0.300000E-02
       9393               0.300000E-02
       9394               0.300000E-02
       9395               0.300000E-02
       9396               0.300000E-02
       9397               0.300000E-02
       9398               0.300000E-02
       9399               0.300000E-02
       9400               0.300000E-02
       9401               0.300000E-02
       9402               0.300000E-02
       9403               0.300000E-02
       9404               0.300000E-02
       9405               0.300000E-02
       9406               0.300000E-02
       9407               0.300000E-02
       9408               0.300000E-02
       9409               0.300000E-02
       9410               0.300000E-02
       9411               0.300000E-02
       9412               0.300000E-02
       9413               0.300000E-02
       9414               0.300000E-02
       9415               0.300000E-02
       9416               0.300000E-02
       9417               0.300000E-02
       9418               0.300000E-02
       9419               0.300000E-02
       9420               0.300000E-02
       9421               0.300000E-02
       9422               0.300000E-02
       9423               0.300000E-02
       9424               0.300000E-02
       9425               0.300000E-02
       9426               0.300000E-02
       9427               0.300000E-02
       9428               0.300000E-02
       9429               0.300000E-02
       9430               0.300000E-02
       9431               0.300000E-02
       9432               0.300000E-02
       9433               0.300000E-02
       9434               0.300000E-02
       9435               0.300000E-02
       9436               0.300000E-02
       9437               0.300000E-02
       9438               0.300000E-02
       9439               0.300000E-02
       9440               0.300000E-02
       9441               0.300000E-02
       9442               0.300000E-02
       9443               0.300000E-02
       9444               0.300000E-02
       9445               0.300000E-02
       9446               0.300000E-02
       9447               0.300000E-02
       9448               0.300000E-02
       9449               0.300000E-02
       9450               0.300000E-02
       9451               0.300000E-02
       9452               0.300000E-02
       9453               0.300000E-02
       9454               0.300000E-02
       9455               0.300000E-02
       9456               0.300000E-02
       9457               0.300000E-02
       9458               0.300000E-02
       9459               0.300000E-02
       9460               0.300000E-02
       9461               0.300000E-02
       9462               0.300000E-02
       9463               0.300000E-02
       9464               0.300000E-02
       9465               0.300000E-02
       9466               0.300000E-02
       9467               0.300000E-02
       9468               0.300000E-02
       9469               0.300000E-02
       9470               0.300000E-02
       9471               0.300000E-02
       9472               0.300000E-02
       9473               0.300000E-02
       9474               0.300000E-02
       9475               0.300000E-02
       9476               0.300000E-02
       9477               0.300000E-02
       9478               0.300000E-02
       9479               0.300000E-02
       9480               0.300000E-02
       9481               0.300000E-02
       9482               0.300000E-02
       9483               0.300000E-02
       9484               0.300000E-02
       9485               0.300000E-02
       9486               0.300000E-02
       9487               0.300000E-02
       9488               0.300000E-02
       9489               0.300000E-02
       9490               0.300000E-02
       9491               0.300000E-02
       9492               0.300000E-02
       9493               0.300000E-02
       9494               0.300000E-02
       9495               0.300000E-02
       9496               0.300000E-02
       9497               0.300000E-02
       9498               0.300000E-02
       9499               0.300000E-02
       9500               0.300000E-02
       9501               0.300000E-02
       9502               0.300000E-02
       9503               0.300000E-02
       9504               0.300000E-02
       9505               0.300000E-02
       9506               0.300000E-02
       9507               0.300000E-02
       9508               0.300000E-02
       9509               0.300000E-02
       9510               0.300000E-02
       9511               0.300000E-02
       9512               0.300000E-02
       9513               0.300000E-02
       9514               0.300000E-02
       9515               0.300000E-02
       9516               0.300000E-02
       9517               0.300000E-02
       9518               0.300000E-02
       9519               0.300000E-02
       9520               0.300000E-02
       9521               0.300000E-02
       9522               0.300000E-02
       9523               0.300000E-02
       9524               0.300000E-02
       9525               0.300000E-02
       9526               0.300000E-02
       9527               0.300000E-02
       9528               0.300000E-02
       9529               0.300000E-02
       9530               0.300000E-02
       9531               0.300000E-02
       9532               0.300000E-02
       9533               0.300000E-02
       9534               0.300000E-02
       9535               0.300000E-02
       9536               0.300000E-02
       9537               0.300000E-02
       9538               0.300000E-02
       9539               0.300000E-02
       9540               0.300000E-02
       9541               0.300000E-02
       9542               0.300000E-02
       9543               0.300000E-02
       9544               0.300000E-02
       9545               0.300000E-02
       9546               0.300000E-02
       9547               0.300000E-02
       9548               0.300000E-02
       9549               0.300000E-02
       9550               0.300000E-02
       9551               0.300000E-02
       9552               0.300000E-02
       9553               0.300000E-02
       9554               0.300000E-02
       9555               0.300000E-02
       9556               0.300000E-02
       9557               0.300000E-02
       9558               0.300000E-02
       9559               0.300000E-02
       9560               0.300000E-02
       9561               0.300000E-02
       9562               0.300000E-02
       9563               0.300000E-02
       9564               0.300000E-02
       9565               0.300000E-02
       9566               0.300000E-02
       9567               0.300000E-02
       9568               0.300000E-02
       9569               0.300000E-02
       9570               0.300000E-02
       9571               0.300000E-02
       9572               0.300000E-02
       9573               0.300000E-02
       9574               0.300000E-02
       9575               0.300000E-02
       9576               0.300000E-02
       9577               0.300000E-02
       9578               0.300000E-02
       9579               0.300000E-02
       9580               0.300000E-02
       9581               0.300000E-02
       9582               0.300000E-02
       9583               0.300000E-02
       9584               0.300000E-02
       9585               0.300000E-02
       9586               0.300000E-02
       9587               0.300000E-02
       9588               0.300000E-02
       9589               0.300000E-02
       9590               0.300000E-02
       9591               0.300000E-02
       9592               0.300000E-02
       9593               0.300000E-02
       9594               0.300000E-02
       9595               0.300000E-02
       9596               0.300000E-02
       9597               0.300000E-02
       9598               0.300000E-02
       9599               0.300000E-02
       9600               0.300000E-02
       9601               0.300000E-02
       9602               0.300000E-02
       9603               0.300000E-02
       9604               0.300000E-02
       9605               0.300000E-02
       9606               0.300000E-02
       9607               0.300000E-02
       9608               0.300000E-02
       9609               0.300000E-02
       9610               0.300000E-02
       9611               0.300000E-02
       9612               0.300000E-02
       9613               0.300000E-02
       9614               0.300000E-02
       9615               0.300000E-02
       9616               0.300000E-02
       9617               0.300000E-02
       9618               0.300000E-02
       9619               0.300000E-02
       9620               0.300000E-02
       9621               0.300000E-02
       9622               0.300000E-02
       9623               0.300000E-02
       9624               0.300000E-02
       9625               0.300000E-02
       9626               0.300000E-02
       9627               0.300000E-02
       9628               0.300000E-02
       9629               0.300000E-02
       9630               0.300000E-02
       9631               0.300000E-02
       9632               0.300000E-02
       9633               0.300000E-02
       9634               0.300000E-02
       9635               0.300000E-02
       9636               0.300000E-02
       9637               0.300000E-02
       9638               0.300000E-02
       9639               0.300000E-02
       9640               0.300000E-02
       9641               0.300000E-02
       9642               0.300000E-02
       9643               0.300000E-02
       9644               0.300000E-02
       9645               0.300000E-02
       9646               0.300000E-02
       9647               0.300000E-02
       9648               0.300000E-02
       9649               0.300000E-02
       9650               0.300000E-02
       9651               0.300000E-02
       9652               0.300000E-02
       9653               0.300000E-02
       9654               0.300000E-02
       9655               0.300000E-02
       9656               0.300000E-02
       9657               0.300000E-02
       9658               0.300000E-02
       9659               0.300000E-02
       9660               0.300000E-02
       9661               0.300000E-02
       9662               0.300000E-02
       9663               0.300000E-02
       9664               0.300000E-02
       9665               0.300000E-02
       9666               0.300000E-02
       9667               0.300000E-02
       9668               0.300000E-02
       9669               0.300000E-02
       9670               0.300000E-02
       9671               0.300000E-02
       9672               0.300000E-02
       9673               0.300000E-02
       9674               0.300000E-02
       9675               0.300000E-02
       9676               0.300000E-02
       9677               0.300000E-02
       9678               0.300000E-02
       9679               0.300000E-02
       9680               0.300000E-02
       9681               0.300000E-02
       9682               0.300000E-02
       9683               0.300000E-02
       9684               0.300000E-02
       9685               0.300000E-02
       9686               0.300000E-02
       9687               0.300000E-02
       9688               0.300000E-02
       9689               0.300000E-02
       9690               0.300000E-02
       9691               0.300000E-02
       9692               0.300000E-02
       9693               0.300000E-02
       9694               0.300000E-02
       9695               0.300000E-02
       9696               0.300000E-02
       9697               0.300000E-02
       9698               0.300000E-02
       9699               0.300000E-02
       9700               0.300000E-02
       9701               0.300000E-02
       9702               0.300000E-02
       9703               0.300000E-02
       9704               0.300000E-02
       9705               0.300000E-02
       9706               0.300000E-02
       9707               0.300000E-02
       9708               0.300000E-02
       9709               0.300000E-02
       9710               0.300000E-02
       9711               0.300000E-02
       9712               0.300000E-02
       9713               0.300000E-02
       9714               0.300000E-02
       9715               0.300000E-02
       9716               0.300000E-02
       9717               0.300000E-02
       9718               0.300000E-02
       9719               0.300000E-02
       9720               0.300000E-02
       9721               0.300000E-02
       9722               0.300000E-02
       9723               0.300000E-02
       9724               0.300000E-02
       9725               0.300000E-02
       9726               0.300000E-02
       9727               0.300000E-02
       9728               0.300000E-02
       9729               0.300000E-02
       9730               0.300000E-02
       9731               0.300000E-02
       9732               0.300000E-02
       9733               0.300000E-02
       9734               0.300000E-02
       9735               0.300000E-02
       9736               0.300000E-02
       9737               0.300000E-02
       9738               0.300000E-02
       9739               0.300000E-02
       9740               0.300000E-02
       9741               0.300000E-02
       9742               0.300000E-02
       9743               0.300000E-02
       9744               0.300000E-02
       9745               0.300000E-02
       9746               0.300000E-02
       9747               0.300000E-02
       9748               0.300000E-02
       9749               0.300000E-02
       9750               0.300000E-02
       9751               0.300000E-02
       9752               0.300000E-02
       9753               0.300000E-02
       9754               0.300000E-02
       9755               0.300000E-02
       9756               0.300000E-02
       9757               0.300000E-02
       9758               0.300000E-02
       9759               0.300000E-02
       9760               0.300000E-02
       9761               0.300000E-02
       9762               0.300000E-02
       9763               0.300000E-02
       9764               0.300000E-02
       9765               0.300000E-02
       9766               0.300000E-02
       9767               0.300000E-02
       9768               0.300000E-02
       9769               0.300000E-02
       9770               0.300000E-02
       9771               0.300000E-02
       9772               0.300000E-02
       9773               0.300000E-02
       9774               0.300000E-02
       9775               0.300000E-02
       9776               0.300000E-02
       9777               0.300000E-02
       9778               0.300000E-02
       9779               0.300000E-02
       9780               0.300000E-02
       9781               0.300000E-02
       9782               0.300000E-02
       9783               0.300000E-02
       9784               0.300000E-02
       9785               0.300000E-02
       9786               0.300000E-02
       9787               0.300000E-02
       9788               0.300000E-02
       9789               0.300000E-02
       9790               0.300000E-02
       9791               0.300000E-02
       9792               0.300000E-02
       9793               0.300000E-02
       9794               0.300000E-02
       9795               0.300000E-02
       9796               0.300000E-02
       9797               0.300000E-02
       9798               0.300000E-02
       9799               0.300000E-02
       9800               0.300000E-02
       9801               0.300000E-02
       9802               0.300000E-02
       9803               0.300000E-02
       9804               0.300000E-02
       9805               0.300000E-02
       9806               0.300000E-02
       9807               0.300000E-02
       9808               0.300000E-02
       9809               0.300000E-02
       9810               0.300000E-02
       9811               0.300000E-02
       9812               0.300000E-02
       9813               0.300000E-02
       9814               0.300000E-02
       9815               0.300000E-02
       9816               0.300000E-02
       9817               0.300000E-02
       9818               0.300000E-02
       9819               0.300000E-02
       9820               0.300000E-02
       9821               0.300000E-02
       9822               0.300000E-02
       9823               0.300000E-02
       9824               0.300000E-02
       9825               0.300000E-02
       9826               0.300000E-02
       9827               0.300000E-02
       9828               0.300000E-02
       9829               0.300000E-02
       9830               0.300000E-02
       9831               0.300000E-02
       9832               0.300000E-02
       9833               0.300000E-02
       9834               0.300000E-02
       9835               0.300000E-02
       9836               0.300000E-02
       9837               0.300000E-02
       9838               0.300000E-02
       9839               0.300000E-02
       9840               0.300000E-02
       9841               0.300000E-02
       9842               0.300000E-02
       9843               0.300000E-02
       9844               0.300000E-02
       9845               0.300000E-02
       9846               0.300000E-02
       9847               0.300000E-02
       9848               0.300000E-02
       9849               0.300000E-02
       9850               0.300000E-02
       9851               0.300000E-02
       9852               0.300000E-02
       9853               0.300000E-02
       9854               0.300000E-02
       9855               0.300000E-02
       9856               0.300000E-02
       9857               0.300000E-02
       9858               0.300000E-02
       9859               0.300000E-02
       9860               0.300000E-02
       9861               0.300000E-02
       9862               0.300000E-02
       9863               0.300000E-02
       9864               0.300000E-02
       9865               0.300000E-02
       9866               0.300000E-02
       9867               0.300000E-02
       9868               0.300000E-02
       9869               0.300000E-02
       9870               0.300000E-02
       9871               0.300000E-02
       9872               0.300000E-02
       9873               0.300000E-02
       9874               0.300000E-02
       9875               0.300000E-02
       9876               0.300000E-02
       9877               0.300000E-02
       9878               0.300000E-02
       9879               0.300000E-02
       9880               0.300000E-02
       9881               0.300000E-02
       9882               0.300000E-02
       9883               0.300000E-02
       9884               0.300000E-02
       9885               0.300000E-02
       9886               0.300000E-02
       9887               0.300000E-02
       9888               0.300000E-02
       9889               0.300000E-02
       9890               0.300000E-02
       9891               0.300000E-02
       9892               0.300000E-02
       9893               0.300000E-02
       9894               0.300000E-02
       9895               0.300000E-02
       9896               0.300000E-02
       9897               0.300000E-02
       9898               0.300000E-02
       9899               0.300000E-02
       9900               0.300000E-02
       9901               0.300000E-02
       9902               0.300000E-02
       9903               0.300000E-02
       9904               0.300000E-02
       9905               0.300000E-02
       9906               0.300000E-02
       9907               0.300000E-02
       9908               0.300000E-02
       9909               0.300000E-02
       9910               0.300000E-02
       9911               0.300000E-02
       9912               0.300000E-02
       9913               0.300000E-02
       9914               0.300000E-02
       9915               0.300000E-02
       9916               0.300000E-02
       9917               0.300000E-02
       9918               0.300000E-02
       9919               0.300000E-02
       9920               0.300000E-02
       9921               0.300000E-02
       9922               0.300000E-02
       9923               0.300000E-02
       9924               0.300000E-02
       9925               0.300000E-02
       9926               0.300000E-02
       9927               0.300000E-02
       9928               0.300000E-02
       9929               0.300000E-02
       9930               0.300000E-02
       9931               0.300000E-02
       9932               0.300000E-02
       9933               0.300000E-02
       9934               0.300000E-02
       9935               0.300000E-02
       9936               0.300000E-02
       9937               0.300000E-02
       9938               0.300000E-02
       9939               0.300000E-02
       9940               0.300000E-02
       9941               0.300000E-02
       9942               0.300000E-02
       9943               0.300000E-02
       9944               0.300000E-02
       9945               0.300000E-02
       9946               0.300000E-02
       9947               0.300000E-02
       9948               0.300000E-02
       9949               0.300000E-02
       9950               0.300000E-02
       9951               0.300000E-02
       9952               0.300000E-02
       9953               0.300000E-02
       9954               0.300000E-02
       9955               0.300000E-02
       9956               0.300000E-02
       9957               0.300000E-02
       9958               0.300000E-02
       9959               0.300000E-02
       9960               0.300000E-02
       9961               0.300000E-02
       9962               0.300000E-02
       9963               0.300000E-02
       9964               0.300000E-02
       9965               0.300000E-02
       9966               0.300000E-02
       9967               0.300000E-02
       9968               0.300000E-02
       9969               0.300000E-02
       9970               0.300000E-02
       9971               0.300000E-02
       9972               0.300000E-02
       9973               0.300000E-02
       9974               0.300000E-02
       9975               0.300000E-02
       9976               0.300000E-02
       9977               0.300000E-02
       9978               0.300000E-02
       9979               0.300000E-02
       9980               0.300000E-02
       9981               0.300000E-02
       9982               0.300000E-02
       9983               0.300000E-02
       9984               0.300000E-02
       9985               0.300000E-02
       9986               0.300000E-02
       9987               0.300000E-02
       9988               0.300000E-02
       9989               0.300000E-02
       9990               0.300000E-02
       9991               0.300000E-02
       9992               0.300000E-02
       9993               0.300000E-02
       9994               0.300000E-02
       9995               0.300000E-02
       9996               0.300000E-02
       9997               0.300000E-02
       9998               0.300000E-02
       9999               0.300000E-02
      10000               0.300000E-02
      10001               0.300000E-02
      10002               0.300000E-02
      10003               0.300000E-02
      10004               0.300000E-02
      10005               0.300000E-02
      10006               0.300000E-02
      10007               0.300000E-02
      10008               0.300000E-02
      10009               0.300000E-02
      10010               0.300000E-02
      10011               0.300000E-02
      10012               0.300000E-02
      10013               0.300000E-02
      10014               0.300000E-02
      10015               0.300000E-02
      10016               0.300000E-02
      10017               0.300000E-02
      10018               0.300000E-02
      10019               0.300000E-02
      10020               0.300000E-02
      10021               0.300000E-02
      10022               0.300000E-02
      10023               0.300000E-02
      10024               0.300000E-02
      10025               0.300000E-02
      10026               0.300000E-02
      10027               0.300000E-02
      10028               0.300000E-02
      10029               0.300000E-02
      10030               0.300000E-02
      10031               0.300000E-02
      10032               0.300000E-02
      10033               0.300000E-02
      10034               0.300000E-02
      10035               0.300000E-02
      10036               0.300000E-02
      10037               0.300000E-02
      10038               0.300000E-02
      10039               0.300000E-02
      10040               0.300000E-02
      10041               0.300000E-02
      10042               0.300000E-02
      10043               0.300000E-02
      10044               0.300000E-02
      10045               0.300000E-02
      10046               0.300000E-02
      10047               0.300000E-02
      10048               0.300000E-02
      10049               0.300000E-02
      10050               0.300000E-02
      10051               0.300000E-02
      10052               0.300000E-02
      10053               0.300000E-02
      10054               0.300000E-02
      10055               0.300000E-02
      10056               0.300000E-02
      10057               0.300000E-02
      10058               0.300000E-02
      10059               0.300000E-02
      10060               0.300000E-02
      10061               0.300000E-02
      10062               0.300000E-02
      10063               0.300000E-02
      10064               0.300000E-02
      10065               0.300000E-02
      10066               0.300000E-02
      10067               0.300000E-02
      10068               0.300000E-02
      10069               0.300000E-02
      10070               0.300000E-02
      10071               0.300000E-02
      10072               0.300000E-02
      10073               0.300000E-02
      10074               0.300000E-02
      10075               0.300000E-02
      10076               0.300000E-02
      10077               0.300000E-02
      10078               0.300000E-02
      10079               0.300000E-02
      10080               0.300000E-02
      10081               0.300000E-02
      10082               0.300000E-02
      10083               0.300000E-02
      10084               0.300000E-02
      10085               0.300000E-02
      10086               0.300000E-02
      10087               0.300000E-02
      10088               0.300000E-02
      10089               0.300000E-02
      10090               0.300000E-02
      10091               0.300000E-02
      10092               0.300000E-02
      10093               0.300000E-02
      10094               0.300000E-02
      10095               0.300000E-02
      10096               0.300000E-02
      10097               0.300000E-02
      10098               0.300000E-02
      10099               0.300000E-02
      10100               0.300000E-02
      10101               0.300000E-02
      10102               0.300000E-02
      10103               0.300000E-02
      10104               0.300000E-02
      10105               0.300000E-02
      10106               0.300000E-02
      10107               0.300000E-02
      10108               0.300000E-02
      10109               0.300000E-02
      10110               0.300000E-02
      10111               0.300000E-02
      10112               0.300000E-02
      10113               0.300000E-02
      10114               0.300000E-02
      10115               0.300000E-02
      10116               0.300000E-02
      10117               0.300000E-02
      10118               0.300000E-02
      10119               0.300000E-02
      10120               0.300000E-02
      10121               0.300000E-02
      10122               0.300000E-02
      10123               0.300000E-02
      10124               0.300000E-02
      10125               0.300000E-02
      10126               0.300000E-02
      10127               0.300000E-02
      10128               0.300000E-02
      10129               0.300000E-02
      10130               0.300000E-02
      10131               0.300000E-02
      10132               0.300000E-02
      10133               0.300000E-02
      10134               0.300000E-02
      10135               0.300000E-02
      10136               0.300000E-02
      10137               0.300000E-02
      10138               0.300000E-02
      10139               0.300000E-02
      10140               0.300000E-02
      10141               0.300000E-02
      10142               0.300000E-02
      10143               0.300000E-02
      10144               0.300000E-02
      10145               0.300000E-02
      10146               0.300000E-02
      10147               0.300000E-02
      10148               0.300000E-02
      10149               0.300000E-02
      10150               0.300000E-02
      10151               0.300000E-02
      10152               0.300000E-02
      10153               0.300000E-02
      10154               0.300000E-02
      10155               0.300000E-02
      10156               0.300000E-02
      10157               0.300000E-02
      10158               0.300000E-02
      10159               0.300000E-02
      10160               0.300000E-02
      10161               0.300000E-02
      10162               0.300000E-02
      10163               0.300000E-02
      10164               0.300000E-02
      10165               0.300000E-02
      10166               0.300000E-02
      10167               0.300000E-02
      10168               0.300000E-02
      10169               0.300000E-02
      10170               0.300000E-02
      10171               0.300000E-02
      10172               0.300000E-02
      10173               0.300000E-02
      10174               0.300000E-02
      10175               0.300000E-02
      10176               0.300000E-02
      10177               0.300000E-02
      10178               0.300000E-02
      10179               0.300000E-02
      10180               0.300000E-02
      10181               0.300000E-02
      10182               0.300000E-02
      10183               0.300000E-02
      10184               0.300000E-02
      10185               0.300000E-02
      10186               0.300000E-02
      10187               0.300000E-02
      10188               0.300000E-02
      10189               0.300000E-02
      10190               0.300000E-02
      10191               0.300000E-02
      10192               0.300000E-02
      10193               0.300000E-02
      10194               0.300000E-02
      10195               0.300000E-02
      10196               0.300000E-02
      10197               0.300000E-02
      10198               0.300000E-02
      10199               0.300000E-02
      10200               0.300000E-02
      10201               0.300000E-02
      10202               0.300000E-02
      10203               0.300000E-02
      10204               0.300000E-02
      10205               0.300000E-02
      10206               0.300000E-02
      10207               0.300000E-02
      10208               0.300000E-02
      10209               0.300000E-02
      10210               0.300000E-02
      10211               0.300000E-02
      10212               0.300000E-02
      10213               0.300000E-02
      10214               0.300000E-02
      10215               0.300000E-02
      10216               0.300000E-02
      10217               0.300000E-02
      10218               0.300000E-02
      10219               0.300000E-02
      10220               0.300000E-02
      10221               0.300000E-02
      10222               0.300000E-02
      10223               0.300000E-02
      10224               0.300000E-02
      10225               0.300000E-02
      10226               0.300000E-02
      10227               0.300000E-02
      10228               0.300000E-02
      10229               0.300000E-02
      10230               0.300000E-02
      10231               0.300000E-02
      10232               0.300000E-02
      10233               0.300000E-02
      10234               0.300000E-02
      10235               0.300000E-02
      10236               0.300000E-02
      10237               0.300000E-02
      10238               0.300000E-02
      10239               0.300000E-02
      10240               0.300000E-02
      10241               0.300000E-02
      10242               0.300000E-02
      10243               0.300000E-02
      10244               0.300000E-02
      10245               0.300000E-02
      10246               0.300000E-02
      10247               0.300000E-02
      10248               0.300000E-02
      10249               0.300000E-02
      10250               0.300000E-02
      10251               0.300000E-02
      10252               0.300000E-02
      10253               0.300000E-02
      10254               0.300000E-02
      10255               0.300000E-02
      10256               0.300000E-02
      10257               0.300000E-02
      10258               0.300000E-02
      10259               0.300000E-02
      10260               0.300000E-02
      10261               0.300000E-02
      10262               0.300000E-02
      10263               0.300000E-02
      10264               0.300000E-02
      10265               0.300000E-02
      10266               0.300000E-02
      10267               0.300000E-02
      10268               0.300000E-02
      10269               0.300000E-02
      10270               0.300000E-02
      10271               0.300000E-02
      10272               0.300000E-02
      10273               0.300000E-02
      10274               0.300000E-02
      10275               0.300000E-02
      10276               0.300000E-02
      10277               0.300000E-02
      10278               0.300000E-02
      10279               0.300000E-02
      10280               0.300000E-02
      10281               0.300000E-02
      10282               0.300000E-02
      10283               0.300000E-02
      10284               0.300000E-02
      10285               0.300000E-02
      10286               0.300000E-02
      10287               0.300000E-02
      10288               0.300000E-02
      10289               0.300000E-02
      10290               0.300000E-02
      10291               0.300000E-02
      10292               0.300000E-02
      10293               0.300000E-02
      10294               0.300000E-02
      10295               0.300000E-02
      10296               0.300000E-02
      10297               0.300000E-02
      10298               0.300000E-02
      10299               0.300000E-02
      10300               0.300000E-02
      10301               0.300000E-02
      10302               0.300000E-02
      10303               0.300000E-02
      10304               0.300000E-02
      10305               0.300000E-02
      10306               0.300000E-02
      10307               0.300000E-02
      10308               0.300000E-02
      10309               0.300000E-02
      10310               0.300000E-02
      10311               0.300000E-02
      10312               0.300000E-02
      10313               0.300000E-02
      10314               0.300000E-02
      10315               0.300000E-02
      10316               0.300000E-02
      10317               0.300000E-02
      10318               0.300000E-02
      10319               0.300000E-02
      10320               0.300000E-02
      10321               0.300000E-02
      10322               0.300000E-02
      10323               0.300000E-02
      10324               0.300000E-02
      10325               0.300000E-02
      10326               0.300000E-02
      10327               0.300000E-02
      10328               0.300000E-02
      10329               0.300000E-02
      10330               0.300000E-02
      10331               0.300000E-02
      10332               0.300000E-02
      10333               0.300000E-02
      10334               0.300000E-02
      10335               0.300000E-02
      10336               0.300000E-02
      10337               0.300000E-02
      10338               0.300000E-02
      10339               0.300000E-02
      10340               0.300000E-02
      10341               0.300000E-02
      10342               0.300000E-02
      10343               0.300000E-02
      10344               0.300000E-02
      10345               0.300000E-02
      10346               0.300000E-02
      10347               0.300000E-02
      10348               0.300000E-02
      10349               0.300000E-02
      10350               0.300000E-02
      10351               0.300000E-02
      10352               0.300000E-02
      10353               0.300000E-02
      10354               0.300000E-02
      10355               0.300000E-02
      10356               0.300000E-02
      10357               0.300000E-02
      10358               0.300000E-02
      10359               0.300000E-02
      10360               0.300000E-02
      10361               0.300000E-02
      10362               0.300000E-02
      10363               0.300000E-02
      10364               0.300000E-02
      10365               0.300000E-02
      10366               0.300000E-02
      10367               0.300000E-02
      10368               0.300000E-02
      10369               0.300000E-02
      10370               0.300000E-02
      10371               0.300000E-02
      10372               0.300000E-02
      10373               0.300000E-02
      10374               0.300000E-02
      10375               0.300000E-02
      10376               0.300000E-02
      10377               0.300000E-02
      10378               0.300000E-02
      10379               0.300000E-02
      10380               0.300000E-02
      10381               0.300000E-02
      10382               0.300000E-02
      10383               0.300000E-02
      10384               0.300000E-02
      10385               0.300000E-02
      10386               0.300000E-02
      10387               0.300000E-02
      10388               0.300000E-02
      10389               0.300000E-02
      10390               0.300000E-02
      10391               0.300000E-02
      10392               0.300000E-02
      10393               0.300000E-02
      10394               0.300000E-02
      10395               0.300000E-02
      10396               0.300000E-02
      10397               0.300000E-02
      10398               0.300000E-02
      10399               0.300000E-02
      10400               0.300000E-02
      10401               0.300000E-02
      10402               0.300000E-02
      10403               0.300000E-02
      10404               0.300000E-02
      10405               0.300000E-02
      10406               0.300000E-02
      10407               0.300000E-02
      10408               0.300000E-02
      10409               0.300000E-02
      10410               0.300000E-02
      10411               0.300000E-02
      10412               0.300000E-02
      10413               0.300000E-02
      10414               0.300000E-02
      10415               0.300000E-02
      10416               0.300000E-02
      10417               0.300000E-02
      10418               0.300000E-02
      10419               0.300000E-02
      10420               0.300000E-02
      10421               0.300000E-02
      10422               0.300000E-02
      10423               0.300000E-02
      10424               0.300000E-02
      10425               0.300000E-02
      10426               0.300000E-02
      10427               0.300000E-02
      10428               0.300000E-02
      10429               0.300000E-02
      10430               0.300000E-02
      10431               0.300000E-02
      10432               0.300000E-02
      10433               0.300000E-02
      10434               0.300000E-02
      10435               0.300000E-02
      10436               0.300000E-02
      10437               0.300000E-02
      10438               0.300000E-02
      10439               0.300000E-02
      10440               0.300000E-02
      10441               0.300000E-02
      10442               0.300000E-02
      10443               0.300000E-02
      10444               0.300000E-02
      10445               0.300000E-02
      10446               0.300000E-02
      10447               0.300000E-02
      10448               0.300000E-02
      10449               0.300000E-02
      10450               0.300000E-02
      10451               0.300000E-02
      10452               0.300000E-02
      10453               0.300000E-02
      10454               0.300000E-02
      10455               0.300000E-02
      10456               0.300000E-02
      10457               0.300000E-02
      10458               0.300000E-02
      10459               0.300000E-02
      10460               0.300000E-02
      10461               0.300000E-02
      10462               0.300000E-02
      10463               0.300000E-02
      10464               0.300000E-02
      10465               0.300000E-02
      10466               0.300000E-02
      10467               0.300000E-02
      10468               0.300000E-02
      10469               0.300000E-02
      10470               0.300000E-02
      10471               0.300000E-02
      10472               0.300000E-02
      10473               0.300000E-02
      10474               0.300000E-02
      10475               0.300000E-02
      10476               0.300000E-02
      10477               0.300000E-02
      10478               0.300000E-02
      10479               0.300000E-02
      10480               0.300000E-02
      10481               0.300000E-02
      10482               0.300000E-02
      10483               0.300000E-02
      10484               0.300000E-02
      10485               0.300000E-02
      10486               0.300000E-02
      10487               0.300000E-02
      10488               0.300000E-02
      10489               0.300000E-02
      10490               0.300000E-02
      10491               0.300000E-02
      10492               0.300000E-02
      10493               0.300000E-02
      10494               0.300000E-02
      10495               0.300000E-02
      10496               0.300000E-02
      10497               0.300000E-02
      10498               0.300000E-02
      10499               0.300000E-02
      10500               0.300000E-02
      10501               0.300000E-02
      10502               0.300000E-02
      10503               0.300000E-02
      10504               0.300000E-02
      10505               0.300000E-02
      10506               0.300000E-02
      10507               0.300000E-02
      10508               0.300000E-02
      10509               0.300000E-02
      10510               0.300000E-02
      10511               0.300000E-02
      10512               0.300000E-02
      10513               0.300000E-02
      10514               0.300000E-02
      10515               0.300000E-02
      10516               0.300000E-02
      10517               0.300000E-02
      10518               0.300000E-02
      10519               0.300000E-02
      10520               0.300000E-02
      10521               0.300000E-02
      10522               0.300000E-02
      10523               0.300000E-02
      10524               0.300000E-02
      10525               0.300000E-02
      10526               0.300000E-02
      10527               0.300000E-02
      10528               0.300000E-02
      10529               0.300000E-02
      10530               0.300000E-02
      10531               0.300000E-02
      10532               0.300000E-02
      10533               0.300000E-02
      10534               0.300000E-02
      10535               0.300000E-02
      10536               0.300000E-02
      10537               0.300000E-02
      10538               0.300000E-02
      10539               0.300000E-02
      10540               0.300000E-02
      10541               0.300000E-02
      10542               0.300000E-02
      10543               0.300000E-02
      10544               0.300000E-02
      10545               0.300000E-02
      10546               0.300000E-02
      10547               0.300000E-02
      10548               0.300000E-02
      10549               0.300000E-02
      10550               0.300000E-02
      10551               0.300000E-02
      10552               0.300000E-02
      10553               0.300000E-02
      10554               0.300000E-02
      10555               0.300000E-02
      10556               0.300000E-02
      10557               0.300000E-02
      10558               0.300000E-02
      10559               0.300000E-02
      10560               0.300000E-02
      10561               0.300000E-02
      10562               0.300000E-02
      10563               0.300000E-02
      10564               0.300000E-02
      10565               0.300000E-02
      10566               0.300000E-02
      10567               0.300000E-02
      10568               0.300000E-02
      10569               0.300000E-02
      10570               0.300000E-02
      10571               0.300000E-02
      10572               0.300000E-02
      10573               0.300000E-02
      10574               0.300000E-02
      10575               0.300000E-02
      10576               0.300000E-02
      10577               0.300000E-02
      10578               0.300000E-02
      10579               0.300000E-02
      10580               0.300000E-02
      10581               0.300000E-02
      10582               0.300000E-02
      10583               0.300000E-02
      10584               0.300000E-02
      10585               0.300000E-02
      10586               0.300000E-02
      10587               0.300000E-02
      10588               0.300000E-02
      10589               0.300000E-02
      10590               0.300000E-02
      10591               0.300000E-02
      10592               0.300000E-02
      10593               0.300000E-02
      10594               0.300000E-02
      10595               0.300000E-02
      10596               0.300000E-02
      10597               0.300000E-02
      10598               0.300000E-02
      10599               0.300000E-02
      10600               0.300000E-02
      10601               0.300000E-02
      10602               0.300000E-02
      10603               0.300000E-02
      10604               0.300000E-02
      10605               0.300000E-02
      10606               0.300000E-02
      10607               0.300000E-02
      10608               0.300000E-02
      10609               0.300000E-02
      10610               0.300000E-02
      10611               0.300000E-02
      10612               0.300000E-02
      10613               0.300000E-02
      10614               0.300000E-02
      10615               0.300000E-02
      10616               0.300000E-02
      10617               0.300000E-02
      10618               0.300000E-02
      10619               0.300000E-02
      10620               0.300000E-02
      10621               0.300000E-02
      10622               0.300000E-02
      10623               0.300000E-02
      10624               0.300000E-02
      10625               0.300000E-02
      10626               0.300000E-02
      10627               0.300000E-02
      10628               0.300000E-02
      10629               0.300000E-02
      10630               0.300000E-02
      10631               0.300000E-02
      10632               0.300000E-02
      10633               0.300000E-02
      10634               0.300000E-02
      10635               0.300000E-02
      10636               0.300000E-02
      10637               0.300000E-02
      10638               0.300000E-02
      10639               0.300000E-02
      10640               0.300000E-02
      10641               0.300000E-02
      10642               0.300000E-02
      10643               0.300000E-02
      10644               0.300000E-02
      10645               0.300000E-02
      10646               0.300000E-02
      10647               0.300000E-02
      10648               0.300000E-02
      10649               0.300000E-02
      10650               0.300000E-02
      10651               0.300000E-02
      10652               0.300000E-02
      10653               0.300000E-02
      10654               0.300000E-02
      10655               0.300000E-02
      10656               0.300000E-02
      10657               0.300000E-02
      10658               0.300000E-02
      10659               0.300000E-02
      10660               0.300000E-02
      10661               0.300000E-02
      10662               0.300000E-02
      10663               0.300000E-02
      10664               0.300000E-02
      10665               0.300000E-02
      10666               0.300000E-02
      10667               0.300000E-02
      10668               0.300000E-02
      10669               0.300000E-02
      10670               0.300000E-02
      10671               0.300000E-02
      10672               0.300000E-02
      10673               0.300000E-02
      10674               0.300000E-02
      10675               0.300000E-02
      10676               0.300000E-02
      10677               0.300000E-02
      10678               0.300000E-02
      10679               0.300000E-02
      10680               0.300000E-02
      10681               0.300000E-02
      10682               0.300000E-02
      10683               0.300000E-02
      10684               0.300000E-02
      10685               0.300000E-02
      10686               0.300000E-02
      10687               0.300000E-02
      10688               0.300000E-02
      10689               0.300000E-02
      10690               0.300000E-02
      10691               0.300000E-02
      10692               0.300000E-02
      10693               0.300000E-02
      10694               0.300000E-02
      10695               0.300000E-02
      10696               0.300000E-02
      10697               0.300000E-02
      10698               0.300000E-02
      10699               0.300000E-02
      10700               0.300000E-02
      10701               0.300000E-02
      10702               0.300000E-02
      10703               0.300000E-02
      10704               0.300000E-02
      10705               0.300000E-02
      10706               0.300000E-02
      10707               0.300000E-02
      10708               0.300000E-02
      10709               0.300000E-02
      10710               0.300000E-02
      10711               0.300000E-02
      10712               0.300000E-02
      10713               0.300000E-02
      10714               0.300000E-02
      10715               0.300000E-02
      10716               0.300000E-02
      10717               0.300000E-02
      10718               0.300000E-02
      10719               0.300000E-02
      10720               0.300000E-02
      10721               0.300000E-02
      10722               0.300000E-02
      10723               0.300000E-02
      10724               0.300000E-02
      10725               0.300000E-02
      10726               0.300000E-02
      10727               0.300000E-02
      10728               0.300000E-02
      10729               0.300000E-02
      10730               0.300000E-02
      10731               0.300000E-02
      10732               0.300000E-02
      10733               0.300000E-02
      10734               0.300000E-02
      10735               0.300000E-02
      10736               0.300000E-02
      10737               0.300000E-02
      10738               0.300000E-02
      10739               0.300000E-02
      10740               0.300000E-02
      10741               0.300000E-02
      10742               0.300000E-02
      10743               0.300000E-02
      10744               0.300000E-02
      10745               0.300000E-02
      10746               0.300000E-02
      10747               0.300000E-02
      10748               0.300000E-02
      10749               0.300000E-02
      10750               0.300000E-02
      10751               0.300000E-02
      10752               0.300000E-02
      10753               0.300000E-02
      10754               0.300000E-02
      10755               0.300000E-02
      10756               0.300000E-02
      10757               0.300000E-02
      10758               0.300000E-02
      10759               0.300000E-02
      10760               0.300000E-02
      10761               0.300000E-02
      10762               0.300000E-02
      10763               0.300000E-02
      10764               0.300000E-02
      10765               0.300000E-02
      10766               0.300000E-02
      10767               0.300000E-02
      10768               0.300000E-02
      10769               0.300000E-02
      10770               0.300000E-02
      10771               0.300000E-02
      10772               0.300000E-02
      10773               0.300000E-02
      10774               0.300000E-02
      10775               0.300000E-02
      10776               0.300000E-02
      10777               0.300000E-02
      10778               0.300000E-02
      10779               0.300000E-02
      10780               0.300000E-02
      10781               0.300000E-02
      10782               0.300000E-02
      10783               0.300000E-02
      10784               0.300000E-02
      10785               0.300000E-02
      10786               0.300000E-02
      10787               0.300000E-02
      10788               0.300000E-02
      10789               0.300000E-02
      10790               0.300000E-02
      10791               0.300000E-02
      10792               0.300000E-02
      10793               0.300000E-02
      10794               0.300000E-02
      10795               0.300000E-02
      10796               0.300000E-02
      10797               0.300000E-02
      10798               0.300000E-02
      10799               0.300000E-02
      10800               0.300000E-02
      10801               0.300000E-02
      10802               0.300000E-02
      10803               0.300000E-02
      10804               0.300000E-02
      10805               0.300000E-02
      10806               0.300000E-02
      10807               0.300000E-02
      10808               0.300000E-02
      10809               0.300000E-02
      10810               0.300000E-02
      10811               0.300000E-02
      10812               0.300000E-02
      10813               0.300000E-02
      10814               0.300000E-02
      10815               0.300000E-02
      10816               0.300000E-02
      10817               0.300000E-02
      10818               0.300000E-02
      10819               0.300000E-02
      10820               0.300000E-02
      10821               0.300000E-02
      10822               0.300000E-02
      10823               0.300000E-02
      10824               0.300000E-02
      10825               0.300000E-02
      10826               0.300000E-02
      10827               0.300000E-02
      10828               0.300000E-02
      10829               0.300000E-02
      10830               0.300000E-02
      10831               0.300000E-02
      10832               0.300000E-02
      10833               0.300000E-02
      10834               0.300000E-02
      10835               0.300000E-02
      10836               0.300000E-02
      10837               0.300000E-02
      10838               0.300000E-02
      10839               0.300000E-02
      10840               0.300000E-02
      10841               0.300000E-02
      10842               0.300000E-02
      10843               0.300000E-02
      10844               0.300000E-02
      10845               0.300000E-02
      10846               0.300000E-02
      10847               0.300000E-02
      10848               0.300000E-02
      10849               0.300000E-02
      10850               0.300000E-02
      10851               0.300000E-02
      10852               0.300000E-02
      10853               0.300000E-02
      10854               0.300000E-02
      10855               0.300000E-02
      10856               0.300000E-02
      10857               0.300000E-02
      10858               0.300000E-02
      10859               0.300000E-02
      10860               0.300000E-02
      10861               0.300000E-02
      10862               0.300000E-02
      10863               0.300000E-02
      10864               0.300000E-02
      10865               0.300000E-02
      10866               0.300000E-02
      10867               0.300000E-02
      10868               0.300000E-02
      10869               0.300000E-02
      10870               0.300000E-02
      10871               0.300000E-02
      10872               0.300000E-02
      10873               0.300000E-02
      10874               0.300000E-02
      10875               0.300000E-02
      10876               0.300000E-02
      10877               0.300000E-02
      10878               0.300000E-02
      10879               0.300000E-02
      10880               0.300000E-02
      10881               0.300000E-02
      10882               0.300000E-02
      10883               0.300000E-02
      10884               0.300000E-02
      10885               0.300000E-02
      10886               0.300000E-02
      10887               0.300000E-02
      10888               0.300000E-02
      10889               0.300000E-02
      10890               0.300000E-02
      10891               0.300000E-02
      10892               0.300000E-02
      10893               0.300000E-02
      10894               0.300000E-02
      10895               0.300000E-02
      10896               0.300000E-02
      10897               0.300000E-02
      10898               0.300000E-02
      10899               0.300000E-02
      10900               0.300000E-02
      10901               0.300000E-02
      10902               0.300000E-02
      10903               0.300000E-02
      10904               0.300000E-02
      10905               0.300000E-02
      10906               0.300000E-02
      10907               0.300000E-02
      10908               0.300000E-02
      10909               0.300000E-02
      10910               0.300000E-02
      10911               0.300000E-02
      10912               0.300000E-02
      10913               0.300000E-02
      10914               0.300000E-02
      10915               0.300000E-02
      10916               0.300000E-02
      10917               0.300000E-02
      10918               0.300000E-02
      10919               0.300000E-02
      10920               0.300000E-02
      10921               0.300000E-02
      10922               0.300000E-02
      10923               0.300000E-02
      10924               0.300000E-02
      10925               0.300000E-02
      10926               0.300000E-02
      10927               0.300000E-02
      10928               0.300000E-02
      10929               0.300000E-02
      10930               0.300000E-02
      10931               0.300000E-02
      10932               0.300000E-02
      10933               0.300000E-02
      10934               0.300000E-02
      10935               0.300000E-02
      10936               0.300000E-02
      10937               0.300000E-02
      10938               0.300000E-02
      10939               0.300000E-02
      10940               0.300000E-02
      10941               0.300000E-02
      10942               0.300000E-02
      10943               0.300000E-02
      10944               0.300000E-02
      10945               0.300000E-02
      10946               0.300000E-02
      10947               0.300000E-02
      10948               0.300000E-02
      10949               0.300000E-02
      10950               0.300000E-02
      10951               0.300000E-02
      10952               0.300000E-02
      10953               0.300000E-02
      10954               0.300000E-02
      10955               0.300000E-02
      10956               0.300000E-02
      10957               0.300000E-02
      10958               0.300000E-02
      10959               0.300000E-02
      10960               0.300000E-02
      10961               0.300000E-02
      10962               0.300000E-02
      10963               0.300000E-02
      10964               0.300000E-02
      10965               0.300000E-02
      10966               0.300000E-02
      10967               0.300000E-02
      10968               0.300000E-02
      10969               0.300000E-02
      10970               0.300000E-02
      10971               0.300000E-02
      10972               0.300000E-02
      10973               0.300000E-02
      10974               0.300000E-02
      10975               0.300000E-02
      10976               0.300000E-02
      10977               0.300000E-02
      10978               0.300000E-02
      10979               0.300000E-02
      10980               0.300000E-02
      10981               0.300000E-02
      10982               0.300000E-02
      10983               0.300000E-02
      10984               0.300000E-02
      10985               0.300000E-02
      10986               0.300000E-02
      10987               0.300000E-02
      10988               0.300000E-02
      10989               0.300000E-02
      10990               0.300000E-02
      10991               0.300000E-02
      10992               0.300000E-02
      10993               0.300000E-02
      10994               0.300000E-02
      10995               0.300000E-02
      10996               0.300000E-02
      10997               0.300000E-02
      10998               0.300000E-02
      10999               0.300000E-02
      11000               0.300000E-02
      11001               0.300000E-02
      11002               0.300000E-02
      11003               0.300000E-02
      11004               0.300000E-02
      11005               0.300000E-02
      11006               0.300000E-02
      11007               0.300000E-02
      11008               0.300000E-02
      11009               0.300000E-02
      11010               0.300000E-02
      11011               0.300000E-02
      11012               0.300000E-02
      11013               0.300000E-02
      11014               0.300000E-02
      11015               0.300000E-02
      11016               0.300000E-02
      11017               0.300000E-02
      11018               0.300000E-02
      11019               0.300000E-02
      11020               0.300000E-02
      11021               0.300000E-02
      11022               0.300000E-02
      11023               0.300000E-02
      11024               0.300000E-02
      11025               0.300000E-02
      11026               0.300000E-02
      11027               0.300000E-02
      11028               0.300000E-02
      11029               0.300000E-02
      11030               0.300000E-02
      11031               0.300000E-02
      11032               0.300000E-02
      11033               0.300000E-02
      11034               0.300000E-02
      11035               0.300000E-02
      11036               0.300000E-02
      11037               0.300000E-02
      11038               0.300000E-02
      11039               0.300000E-02
      11040               0.300000E-02
      11041               0.300000E-02
      11042               0.300000E-02
      11043               0.300000E-02
      11044               0.300000E-02
      11045               0.300000E-02
      11046               0.300000E-02
      11047               0.300000E-02
      11048               0.300000E-02
      11049               0.300000E-02
      11050               0.300000E-02
      11051               0.300000E-02
      11052               0.300000E-02
      11053               0.300000E-02
      11054               0.300000E-02
      11055               0.300000E-02
      11056               0.300000E-02
      11057               0.300000E-02
      11058               0.300000E-02
      11059               0.300000E-02
      11060               0.300000E-02
      11061               0.300000E-02
      11062               0.300000E-02
      11063               0.300000E-02
      11064               0.300000E-02
      11065               0.300000E-02
      11066               0.300000E-02
      11067               0.300000E-02
      11068               0.300000E-02
      11069               0.300000E-02
      11070               0.300000E-02
      11071               0.300000E-02
      11072               0.300000E-02
      11073               0.300000E-02
      11074               0.300000E-02
      11075               0.300000E-02
      11076               0.300000E-02
      11077               0.300000E-02
      11078               0.300000E-02
      11079               0.300000E-02
      11080               0.300000E-02
      11081               0.300000E-02
      11082               0.300000E-02
      11083               0.300000E-02
      11084               0.300000E-02
      11085               0.300000E-02
      11086               0.300000E-02
      11087               0.300000E-02
      11088               0.300000E-02
      11089               0.300000E-02
      11090               0.300000E-02
      11091               0.300000E-02
      11092               0.300000E-02
      11093               0.300000E-02
      11094               0.300000E-02
      11095               0.300000E-02
      11096               0.300000E-02
      11097               0.300000E-02
      11098               0.300000E-02
      11099               0.300000E-02
      11100               0.300000E-02
      11101               0.300000E-02
      11102               0.300000E-02
      11103               0.300000E-02
      11104               0.300000E-02
      11105               0.300000E-02
      11106               0.300000E-02
      11107               0.300000E-02
      11108               0.300000E-02
      11109               0.300000E-02
      11110               0.300000E-02
      11111               0.300000E-02
      11112               0.300000E-02
      11113               0.300000E-02
      11114               0.300000E-02
      11115               0.300000E-02
      11116               0.300000E-02
      11117               0.300000E-02
      11118               0.300000E-02
      11119               0.300000E-02
      11120               0.300000E-02
      11121               0.300000E-02
      11122               0.300000E-02
      11123               0.300000E-02
      11124               0.300000E-02
      11125               0.300000E-02
      11126               0.300000E-02
      11127               0.300000E-02
      11128               0.300000E-02
      11129               0.300000E-02
      11130               0.300000E-02
      11131               0.300000E-02
      11132               0.300000E-02
      11133               0.300000E-02
      11134               0.300000E-02
      11135               0.300000E-02
      11136               0.300000E-02
      11137               0.300000E-02
      11138               0.300000E-02
      11139               0.300000E-02
      11140               0.300000E-02
      11141               0.300000E-02
      11142               0.300000E-02
      11143               0.300000E-02
      11144               0.300000E-02
      11145               0.300000E-02
      11146               0.300000E-02
      11147               0.300000E-02
      11148               0.300000E-02
      11149               0.300000E-02
      11150               0.300000E-02
      11151               0.300000E-02
      11152               0.300000E-02
      11153               0.300000E-02
      11154               0.300000E-02
      11155               0.300000E-02
      11156               0.300000E-02
      11157               0.300000E-02
      11158               0.300000E-02
      11159               0.300000E-02
      11160               0.300000E-02
      11161               0.300000E-02
      11162               0.300000E-02
      11163               0.300000E-02
      11164               0.300000E-02
      11165               0.300000E-02
      11166               0.300000E-02
      11167               0.300000E-02
      11168               0.300000E-02
      11169               0.300000E-02
      11170               0.300000E-02
      11171               0.300000E-02
      11172               0.300000E-02
      11173               0.300000E-02
      11174               0.300000E-02
      11175               0.300000E-02
      11176               0.300000E-02
      11177               0.300000E-02
      11178               0.300000E-02
      11179               0.300000E-02
      11180               0.300000E-02
      11181               0.300000E-02
      11182               0.300000E-02
      11183               0.100406E-01
      11184               0.300000E-02
      11185               0.300000E-02
      11186               0.300000E-02
      11187               0.300000E-02
      11188               0.300000E-02
      11189               0.300000E-02
      11190               0.300000E-02
      11191               0.300000E-02
      11192               0.300000E-02
      11193               0.300000E-02
      11194               0.300000E-02
      11195               0.300000E-02
      11196               0.300000E-02
      11197               0.300000E-02
      11198               0.300000E-02
      11199               0.300000E-02
      11200               0.300000E-02
      11201               0.300000E-02
      11202               0.300000E-02
      11203               0.300000E-02
      11204               0.300000E-02
      11205               0.300000E-02
      11206               0.300000E-02
      11207               0.300000E-02
      11208               0.300000E-02
      11209               0.300000E-02
      11210               0.300000E-02
      11211               0.300000E-02
      11212               0.300000E-02
      11213               0.300000E-02
      11214               0.300000E-02
      11215               0.300000E-02
      11216               0.300000E-02
      11217               0.300000E-02
      11218               0.300000E-02
      11219               0.300000E-02
      11220               0.300000E-02
      11221               0.300000E-02
      11222               0.300000E-02
      11223               0.300000E-02
      11224               0.300000E-02
      11225               0.300000E-02
      11226               0.300000E-02
      11227               0.300000E-02
      11228               0.300000E-02
      11229               0.300000E-02
      11230               0.300000E-02
      11231               0.300000E-02
      11232               0.300000E-02
      11233               0.300000E-02
      11234               0.300000E-02
      11235               0.300000E-02
      11236               0.300000E-02
      11237               0.300000E-02
      11238               0.300000E-02
      11239               0.300000E-02
      11240               0.300000E-02
      11241               0.300000E-02
      11242               0.300000E-02
      11243               0.300000E-02
      11244               0.300000E-02
      11245               0.300000E-02
      11246               0.300000E-02
      11247               0.300000E-02
      11248               0.300000E-02
      11249               0.300000E-02
      11250               0.300000E-02
      11251               0.300000E-02
      11252               0.300000E-02
      11253               0.300000E-02
      11254               0.300000E-02
      11255               0.300000E-02
      11256               0.300000E-02
      11257               0.300000E-02
      11258               0.300000E-02
      11259               0.300000E-02
      11260               0.300000E-02
      11261               0.300000E-02
      11262               0.300000E-02
      11263               0.300000E-02
      11264               0.300000E-02
      11265               0.300000E-02
      11266               0.300000E-02
      11267               0.300000E-02
      11268               0.300000E-02
      11269               0.300000E-02
      11270               0.300000E-02
      11271               0.450569E-01
      11272               0.300000E-02
      11273               0.300000E-02
      11274               0.300000E-02
      11275               0.300000E-02
      11276               0.300000E-02
      11277               0.300000E-02
      11278               0.300000E-02
      11279               0.300000E-02
      11280               0.300000E-02
      11281               0.300000E-02
      11282               0.300000E-02
      11283               0.300000E-02
      11284               0.300000E-02
      11285               0.300000E-02
      11286               0.300000E-02
      11287               0.300000E-02
      11288               0.300000E-02
      11289               0.300000E-02
      11290               0.300000E-02
      11291               0.300000E-02
      11292               0.300000E-02
      11293               0.300000E-02
      11294               0.300000E-02
      11295               0.300000E-02
      11296               0.300000E-02
      11297               0.300000E-02
      11298               0.300000E-02
      11299               0.300000E-02
      11300               0.300000E-02
      11301               0.300000E-02
      11302               0.300000E-02
      11303               0.300000E-02
      11304               0.300000E-02
      11305               0.300000E-02
      11306               0.300000E-02
      11307               0.300000E-02
      11308               0.300000E-02
      11309               0.300000E-02
      11310               0.300000E-02
      11311               0.300000E-02
      11312               0.300000E-02
      11313               0.300000E-02
      11314               0.300000E-02
      11315               0.300000E-02
      11316               0.300000E-02
      11317               0.300000E-02
      11318               0.300000E-02
      11319               0.300000E-02
      11320               0.300000E-02
      11321               0.300000E-02
      11322               0.300000E-02
      11323               0.300000E-02
      11324               0.300000E-02
      11325               0.300000E-02
      11326               0.300000E-02
      11327               0.300000E-02
      11328               0.300000E-02
      11329               0.300000E-02
      11330               0.300000E-02
      11331               0.300000E-02
      11332               0.300000E-02
      11333               0.300000E-02
      11334               0.300000E-02
      11335               0.300000E-02
      11336               0.300000E-02
      11337               0.300000E-02
      11338               0.300000E-02
      11339               0.300000E-02
      11340               0.300000E-02
      11341               0.300000E-02
      11342               0.300000E-02
      11343               0.300000E-02
      11344               0.300000E-02
      11345               0.300000E-02
      11346               0.300000E-02
      11347               0.300000E-02
      11348               0.300000E-02
      11349               0.300000E-02
      11350               0.300000E-02
      11351               0.300000E-02
      11352               0.300000E-02
      11353               0.300000E-02
      11354               0.300000E-02
      11355               0.300000E-02
      11356               0.300000E-02
      11357               0.300000E-02
      11358               0.300000E-02
      11359               0.300000E-02
      11360               0.300000E-02
      11361               0.300000E-02
      11362               0.300000E-02
      11363               0.300000E-02
      11364               0.300000E-02
      11365               0.300000E-02
      11366               0.300000E-02
      11367               0.300000E-02
      11368               0.300000E-02
      11369               0.300000E-02
      11370               0.300000E-02
      11371               0.300000E-02
      11372               0.300000E-02
      11373               0.300000E-02
      11374               0.300000E-02
      11375               0.300000E-02
      11376               0.300000E-02
      11377               0.300000E-02
      11378               0.300000E-02
      11379               0.300000E-02
      11380               0.300000E-02
      11381               0.300000E-02
      11382               0.300000E-02
      11383               0.300000E-02
      11384               0.300000E-02
      11385               0.300000E-02
      11386               0.300000E-02
      11387               0.300000E-02
      11388               0.300000E-02
      11389               0.300000E-02
      11390               0.300000E-02
      11391               0.300000E-02
      11392               0.300000E-02
      11393               0.300000E-02
      11394               0.300000E-02
      11395               0.300000E-02
      11396               0.300000E-02
      11397               0.300000E-02
      11398               0.300000E-02
      11399               0.300000E-02
      11400               0.300000E-02
      11401               0.300000E-02
      11402               0.300000E-02
      11403               0.300000E-02
      11404               0.300000E-02
      11405               0.300000E-02
      11406               0.300000E-02
      11407               0.300000E-02
      11408               0.300000E-02
      11409               0.300000E-02
      11410               0.300000E-02
      11411               0.300000E-02
      11412               0.300000E-02
      11413               0.300000E-02
      11414               0.300000E-02
      11415               0.300000E-02
      11416               0.300000E-02
      11417               0.300000E-02
      11418               0.300000E-02
      11419               0.300000E-02
      11420               0.300000E-02
      11421               0.300000E-02
      11422               0.300000E-02
      11423               0.300000E-02
      11424               0.300000E-02
      11425               0.300000E-02
      11426               0.300000E-02
      11427               0.300000E-02
      11428               0.300000E-02
      11429               0.300000E-02
      11430               0.300000E-02
      11431               0.300000E-02
      11432               0.300000E-02
      11433               0.300000E-02
      11434               0.300000E-02
      11435               0.300000E-02
      11436               0.300000E-02
      11437               0.300000E-02
      11438               0.300000E-02
      11439               0.300000E-02
      11440               0.300000E-02
      11441               0.300000E-02
      11442               0.300000E-02
      11443               0.300000E-02
      11444               0.300000E-02
      11445               0.300000E-02
      11446               0.300000E-02
      11447               0.300000E-02
      11448               0.300000E-02
      11449               0.300000E-02
      11450               0.300000E-02
      11451               0.300000E-02
      11452               0.300000E-02
      11453               0.300000E-02
      11454               0.300000E-02
      11455               0.300000E-02
      11456               0.300000E-02
      11457               0.300000E-02
      11458               0.300000E-02
      11459               0.300000E-02
      11460               0.300000E-02
      11461               0.300000E-02
      11462               0.300000E-02
      11463               0.300000E-02
      11464               0.300000E-02
      11465               0.300000E-02
      11466               0.300000E-02
      11467               0.300000E-02
      11468               0.300000E-02
      11469               0.300000E-02
      11470               0.300000E-02
      11471               0.300000E-02
      11472               0.300000E-02
      11473               0.300000E-02
      11474               0.300000E-02
      11475               0.300000E-02
      11476               0.300000E-02
      11477               0.300000E-02
      11478               0.300000E-02
      11479               0.300000E-02
      11480               0.300000E-02
      11481               0.300000E-02
      11482               0.300000E-02
      11483               0.300000E-02
      11484               0.300000E-02
      11485               0.300000E-02
      11486               0.300000E-02
      11487               0.300000E-02
      11488               0.300000E-02
      11489               0.300000E-02
      11490               0.300000E-02
      11491               0.300000E-02
      11492               0.300000E-02
      11493               0.300000E-02
      11494               0.300000E-02
      11495               0.300000E-02
      11496               0.300000E-02
      11497               0.300000E-02
      11498               0.300000E-02
      11499               0.300000E-02
      11500               0.300000E-02
      11501               0.300000E-02
      11502               0.300000E-02
      11503               0.300000E-02
      11504               0.300000E-02
      11505               0.300000E-02
      11506               0.300000E-02
      11507               0.300000E-02
      11508               0.300000E-02
      11509               0.300000E-02
      11510               0.300000E-02
      11511               0.300000E-02
      11512               0.300000E-02
      11513               0.300000E-02
      11514               0.300000E-02
      11515               0.300000E-02
      11516               0.300000E-02
      11517               0.300000E-02
      11518               0.300000E-02
      11519               0.300000E-02
      11520               0.300000E-02
      11521               0.300000E-02
      11522               0.300000E-02
      11523               0.300000E-02
      11524               0.300000E-02
      11525               0.300000E-02
      11526               0.300000E-02
      11527               0.300000E-02
      11528               0.300000E-02
      11529               0.300000E-02
      11530               0.300000E-02
      11531               0.300000E-02
      11532               0.300000E-02
      11533               0.300000E-02
      11534               0.300000E-02
      11535               0.300000E-02
      11536               0.300000E-02
      11537               0.300000E-02
      11538               0.300000E-02
      11539               0.300000E-02
      11540               0.300000E-02
      11541               0.300000E-02
      11542               0.300000E-02
      11543               0.300000E-02
      11544               0.300000E-02
      11545               0.300000E-02
      11546               0.300000E-02
      11547               0.300000E-02
      11548               0.300000E-02
      11549               0.300000E-02
      11550               0.300000E-02
      11551               0.300000E-02
      11552               0.300000E-02
      11553               0.300000E-02
      11554               0.300000E-02
      11555               0.300000E-02
      11556               0.300000E-02
      11557               0.300000E-02
      11558               0.300000E-02
      11559               0.300000E-02
      11560               0.300000E-02
      11561               0.300000E-02
      11562               0.300000E-02
      11563               0.300000E-02
      11564               0.300000E-02
      11565               0.300000E-02
      11566               0.300000E-02
      11567               0.300000E-02
      11568               0.300000E-02
      11569               0.300000E-02
      11570               0.300000E-02
      11571               0.300000E-02
      11572               0.300000E-02
      11573               0.300000E-02
      11574               0.300000E-02
      11575               0.300000E-02
      11576               0.300000E-02
      11577               0.300000E-02
      11578               0.300000E-02
      11579               0.300000E-02
      11580               0.300000E-02
      11581               0.300000E-02
      11582               0.300000E-02
      11583               0.300000E-02
      11584               0.300000E-02
      11585               0.300000E-02
      11586               0.300000E-02
      11587               0.300000E-02
      11588               0.300000E-02
      11589               0.300000E-02
      11590               0.300000E-02
      11591               0.300000E-02
      11592               0.300000E-02
      11593               0.300000E-02
      11594               0.300000E-02
      11595               0.300000E-02
      11596               0.300000E-02
      11597               0.300000E-02
      11598               0.300000E-02
      11599               0.300000E-02
      11600               0.300000E-02
      11601               0.300000E-02
      11602               0.300000E-02
      11603               0.300000E-02
      11604               0.300000E-02
      11605               0.300000E-02
      11606               0.300000E-02
      11607               0.300000E-02
      11608               0.300000E-02
      11609               0.300000E-02
      11610               0.300000E-02
      11611               0.300000E-02
      11612               0.300000E-02
      11613               0.300000E-02
      11614               0.300000E-02
      11615               0.300000E-02
      11616               0.300000E-02
      11617               0.300000E-02
      11618               0.300000E-02
      11619               0.300000E-02
      11620               0.300000E-02
      11621               0.300000E-02
      11622               0.300000E-02
      11623               0.300000E-02
      11624               0.300000E-02
      11625               0.300000E-02
      11626               0.300000E-02
      11627               0.300000E-02
      11628               0.300000E-02
      11629               0.300000E-02
      11630               0.300000E-02
      11631               0.300000E-02
      11632               0.370832E-02
      11633               0.300000E-02
      11634               0.300000E-02
      11635               0.300000E-02
      11636               0.300000E-02
      11637               0.300000E-02
      11638               0.300000E-02
      11639               0.300000E-02
      11640               0.300000E-02
      11641               0.300000E-02
      11642               0.300000E-02
      11643               0.300000E-02
      11644               0.300000E-02
      11645               0.300000E-02
      11646               0.300000E-02
      11647               0.300000E-02
      11648               0.300000E-02
      11649               0.300000E-02
      11650               0.300000E-02
      11651               0.300000E-02
      11652               0.300000E-02
      11653               0.300000E-02
      11654               0.300000E-02
      11655               0.300000E-02
      11656               0.300000E-02
      11657               0.300000E-02
      11658               0.300000E-02
      11659               0.300000E-02
      11660               0.300000E-02
      11661               0.300000E-02
      11662               0.300000E-02
      11663               0.300000E-02
      11664               0.300000E-02
      11665               0.300000E-02
      11666               0.300000E-02
      11667               0.300000E-02
      11668               0.300000E-02
      11669               0.300000E-02
      11670               0.300000E-02
      11671               0.300000E-02
      11672               0.300000E-02
      11673               0.300000E-02
      11674               0.300000E-02
      11675               0.300000E-02
      11676               0.300000E-02
      11677               0.300000E-02
      11678               0.300000E-02
      11679               0.300000E-02
      11680               0.300000E-02
      11681               0.300000E-02
      11682               0.300000E-02
      11683               0.300000E-02
      11684               0.300000E-02
      11685               0.300000E-02
      11686               0.300000E-02
      11687               0.300000E-02
      11688               0.300000E-02
      11689               0.300000E-02
      11690               0.300000E-02
      11691               0.300000E-02
      11692               0.300000E-02
      11693               0.300000E-02
      11694               0.300000E-02
      11695               0.300000E-02
      11696               0.300000E-02
      11697               0.300000E-02
      11698               0.300000E-02
      11699               0.300000E-02
      11700               0.300000E-02
      11701               0.300000E-02
      11702               0.300000E-02
      11703               0.300000E-02
      11704               0.300000E-02
      11705               0.300000E-02
      11706               0.300000E-02
      11707               0.300000E-02
      11708               0.300000E-02
      11709               0.300000E-02
      11710               0.300000E-02
      11711               0.300000E-02
      11712               0.300000E-02
      11713               0.300000E-02
      11714               0.300000E-02
      11715               0.300000E-02
      11716               0.300000E-02
      11717               0.300000E-02
      11718               0.300000E-02
      11719               0.300000E-02
      11720               0.300000E-02
      11721               0.300000E-02
      11722               0.300000E-02
      11723               0.300000E-02
      11724               0.300000E-02
      11725               0.300000E-02
      11726               0.300000E-02
      11727               0.300000E-02
      11728               0.300000E-02
      11729               0.300000E-02
      11730               0.300000E-02
      11731               0.300000E-02
      11732               0.300000E-02
      11733               0.300000E-02
      11734               0.300000E-02
      11735               0.300000E-02
      11736               0.300000E-02
      11737               0.300000E-02
      11738               0.300000E-02
      11739               0.300000E-02
      11740               0.300000E-02
      11741               0.300000E-02
      11742               0.300000E-02
      11743               0.300000E-02
      11744               0.300000E-02
      11745               0.300000E-02
      11746               0.300000E-02
      11747               0.300000E-02
      11748               0.300000E-02
      11749               0.300000E-02
      11750               0.300000E-02
      11751               0.300000E-02
      11752               0.300000E-02
      11753               0.300000E-02
      11754               0.300000E-02
      11755               0.300000E-02
      11756               0.300000E-02
      11757               0.300000E-02
      11758               0.300000E-02
      11759               0.300000E-02
      11760               0.300000E-02
      11761               0.300000E-02
      11762               0.300000E-02
      11763               0.300000E-02
      11764               0.300000E-02
      11765               0.300000E-02
      11766               0.300000E-02
      11767               0.300000E-02
      11768               0.300000E-02
      11769               0.300000E-02
      11770               0.300000E-02
      11771               0.300000E-02
      11772               0.300000E-02
      11773               0.300000E-02
      11774               0.300000E-02
      11775               0.300000E-02
      11776               0.300000E-02
      11777               0.300000E-02
      11778               0.300000E-02
      11779               0.300000E-02
      11780               0.300000E-02
      11781               0.300000E-02
      11782               0.300000E-02
      11783               0.300000E-02
      11784               0.300000E-02
      11785               0.300000E-02
      11786               0.300000E-02
      11787               0.300000E-02
      11788               0.300000E-02
      11789               0.300000E-02
      11790               0.300000E-02
      11791               0.300000E-02
      11792               0.300000E-02
      11793               0.300000E-02
      11794               0.300000E-02
      11795               0.300000E-02
      11796               0.300000E-02
      11797               0.300000E-02
      11798               0.300000E-02
      11799               0.300000E-02
      11800               0.300000E-02
      11801               0.300000E-02
      11802               0.300000E-02
      11803               0.300000E-02
      11804               0.300000E-02
      11805               0.300000E-02
      11806               0.300000E-02
      11807               0.300000E-02
      11808               0.300000E-02
      11809               0.300000E-02
      11810               0.300000E-02
      11811               0.300000E-02
      11812               0.300000E-02
      11813               0.300000E-02
      11814               0.300000E-02
      11815               0.300000E-02
      11816               0.300000E-02
      11817               0.300000E-02
      11818               0.300000E-02
      11819               0.300000E-02
      11820               0.300000E-02
      11821               0.300000E-02
      11822               0.300000E-02
      11823               0.300000E-02
      11824               0.300000E-02
      11825               0.300000E-02
      11826               0.300000E-02
      11827               0.300000E-02
      11828               0.300000E-02
      11829               0.300000E-02
      11830               0.300000E-02
      11831               0.300000E-02
      11832               0.300000E-02
      11833               0.300000E-02
      11834               0.300000E-02
      11835               0.300000E-02
      11836               0.300000E-02
      11837               0.300000E-02
      11838               0.300000E-02
      11839               0.300000E-02
      11840               0.300000E-02
      11841               0.300000E-02
      11842               0.300000E-02
      11843               0.300000E-02
      11844               0.300000E-02
      11845               0.300000E-02
      11846               0.300000E-02
      11847               0.300000E-02
      11848               0.300000E-02
      11849               0.300000E-02
      11850               0.300000E-02
      11851               0.300000E-02
      11852               0.300000E-02
      11853               0.300000E-02
      11854               0.300000E-02
      11855               0.300000E-02
      11856               0.300000E-02
      11857               0.300000E-02
      11858               0.300000E-02
      11859               0.300000E-02
      11860               0.300000E-02
      11861               0.300000E-02
      11862               0.300000E-02
      11863               0.300000E-02
      11864               0.300000E-02
      11865               0.300000E-02
      11866               0.300000E-02
      11867               0.300000E-02
      11868               0.300000E-02
      11869               0.300000E-02
      11870               0.300000E-02
      11871               0.300000E-02
      11872               0.300000E-02
      11873               0.300000E-02
      11874               0.300000E-02
      11875               0.300000E-02
      11876               0.300000E-02
      11877               0.300000E-02
      11878               0.300000E-02
      11879               0.300000E-02
      11880               0.300000E-02
      11881               0.300000E-02
      11882               0.300000E-02
      11883               0.300000E-02
      11884               0.300000E-02
      11885               0.300000E-02
      11886               0.300000E-02
      11887               0.300000E-02
      11888               0.300000E-02
      11889               0.300000E-02
      11890               0.300000E-02
      11891               0.300000E-02
      11892               0.300000E-02
      11893               0.300000E-02
      11894               0.300000E-02
      11895               0.300000E-02
      11896               0.300000E-02
      11897               0.300000E-02
      11898               0.300000E-02
      11899               0.300000E-02
      11900               0.300000E-02
      11901               0.300000E-02
      11902               0.300000E-02
      11903               0.300000E-02
      11904               0.300000E-02
      11905               0.300000E-02
      11906               0.300000E-02
      11907               0.300000E-02
      11908               0.300000E-02
      11909               0.300000E-02
      11910               0.300000E-02
      11911               0.300000E-02
      11912               0.300000E-02
      11913               0.300000E-02
      11914               0.300000E-02
      11915               0.300000E-02
      11916               0.300000E-02
      11917               0.300000E-02
      11918               0.300000E-02
      11919               0.300000E-02
      11920               0.300000E-02
      11921               0.300000E-02
      11922               0.300000E-02
      11923               0.300000E-02
      11924               0.300000E-02
      11925               0.300000E-02
      11926               0.300000E-02
      11927               0.300000E-02
      11928               0.300000E-02
      11929               0.300000E-02
      11930               0.300000E-02
      11931               0.300000E-02
      11932               0.300000E-02
      11933               0.300000E-02
      11934               0.300000E-02
      11935               0.300000E-02
      11936               0.300000E-02
      11937               0.300000E-02
      11938               0.300000E-02
      11939               0.300000E-02
      11940               0.300000E-02
      11941               0.300000E-02
      11942               0.300000E-02
      11943               0.300000E-02
      11944               0.300000E-02
      11945               0.300000E-02
      11946               0.300000E-02
      11947               0.300000E-02
      11948               0.300000E-02
      11949               0.300000E-02
      11950               0.300000E-02
      11951               0.300000E-02
      11952               0.300000E-02
      11953               0.300000E-02
      11954               0.300000E-02
      11955               0.300000E-02
      11956               0.300000E-02
      11957               0.300000E-02
      11958               0.300000E-02
      11959               0.300000E-02
      11960               0.300000E-02
      11961               0.300000E-02
      11962               0.300000E-02
      11963               0.300000E-02
      11964               0.300000E-02
      11965               0.300000E-02
      11966               0.300000E-02
      11967               0.300000E-02
      11968               0.300000E-02
      11969               0.300000E-02
      11970               0.300000E-02
      11971               0.300000E-02
      11972               0.300000E-02
      11973               0.300000E-02
      11974               0.300000E-02
      11975               0.300000E-02
      11976               0.300000E-02
      11977               0.300000E-02
      11978               0.300000E-02
      11979               0.300000E-02
      11980               0.300000E-02
      11981               0.300000E-02
      11982               0.300000E-02
      11983               0.300000E-02
      11984               0.300000E-02
      11985               0.300000E-02
      11986               0.300000E-02
      11987               0.300000E-02
      11988               0.300000E-02
      11989               0.300000E-02
      11990               0.300000E-02
      11991               0.300000E-02
      11992               0.300000E-02
      11993               0.300000E-02
      11994               0.300000E-02
      11995               0.300000E-02
      11996               0.300000E-02
      11997               0.300000E-02
      11998               0.300000E-02
      11999               0.300000E-02
      12000               0.300000E-02
      12001               0.300000E-02
      12002               0.300000E-02
      12003               0.300000E-02
      12004               0.300000E-02
      12005               0.300000E-02
      12006               0.300000E-02
      12007               0.300000E-02
      12008               0.300000E-02
      12009               0.300000E-02
      12010               0.300000E-02
      12011               0.300000E-02
      12012               0.300000E-02
      12013               0.300000E-02
      12014               0.300000E-02
      12015               0.300000E-02
      12016               0.300000E-02
      12017               0.300000E-02
      12018               0.300000E-02
      12019               0.300000E-02
      12020               0.300000E-02
      12021               0.300000E-02
      12022               0.300000E-02
      12023               0.300000E-02
      12024               0.300000E-02
      12025               0.300000E-02
      12026               0.300000E-02
      12027               0.300000E-02
      12028               0.300000E-02
      12029               0.300000E-02
      12030               0.300000E-02
      12031               0.300000E-02
      12032               0.300000E-02
      12033               0.300000E-02
      12034               0.300000E-02
      12035               0.300000E-02
      12036               0.300000E-02
      12037               0.300000E-02
      12038               0.300000E-02
      12039               0.300000E-02
      12040               0.300000E-02
      12041               0.300000E-02
      12042               0.300000E-02
      12043               0.300000E-02
      12044               0.300000E-02
      12045               0.300000E-02
      12046               0.300000E-02
      12047               0.300000E-02
      12048               0.300000E-02
      12049               0.300000E-02
      12050               0.300000E-02
      12051               0.300000E-02
      12052               0.300000E-02
      12053               0.300000E-02
      12054               0.300000E-02
      12055               0.300000E-02
      12056               0.300000E-02
      12057               0.300000E-02
      12058               0.300000E-02
      12059               0.300000E-02
      12060               0.300000E-02
      12061               0.300000E-02
      12062               0.300000E-02
      12063               0.300000E-02
      12064               0.300000E-02
      12065               0.300000E-02
      12066               0.300000E-02
      12067               0.300000E-02
      12068               0.300000E-02
      12069               0.300000E-02
      12070               0.300000E-02
      12071               0.300000E-02
      12072               0.300000E-02
      12073               0.300000E-02
      12074               0.300000E-02
      12075               0.300000E-02
      12076               0.300000E-02
      12077               0.300000E-02
      12078               0.300000E-02
      12079               0.300000E-02
      12080               0.300000E-02
      12081               0.300000E-02
      12082               0.300000E-02
      12083               0.300000E-02
      12084               0.300000E-02
      12085               0.300000E-02
      12086               0.300000E-02
      12087               0.300000E-02
      12088               0.300000E-02
      12089               0.300000E-02
      12090               0.300000E-02
      12091               0.300000E-02
      12092               0.300000E-02
      12093               0.300000E-02
      12094               0.300000E-02
      12095               0.300000E-02
      12096               0.300000E-02
      12097               0.300000E-02
      12098               0.300000E-02
      12099               0.300000E-02
      12100               0.300000E-02
      12101               0.300000E-02
      12102               0.300000E-02
      12103               0.300000E-02
      12104               0.300000E-02
      12105               0.300000E-02
      12106               0.300000E-02
      12107               0.300000E-02
      12108               0.300000E-02
      12109               0.300000E-02
      12110               0.300000E-02
      12111               0.300000E-02
      12112               0.300000E-02
      12113               0.300000E-02
      12114               0.300000E-02
      12115               0.300000E-02
      12116               0.300000E-02
      12117               0.300000E-02
      12118               0.300000E-02
      12119               0.300000E-02
      12120               0.300000E-02
      12121               0.300000E-02
      12122               0.300000E-02
      12123               0.300000E-02
      12124               0.300000E-02
      12125               0.300000E-02
      12126               0.300000E-02
      12127               0.300000E-02
      12128               0.300000E-02
      12129               0.300000E-02
      12130               0.300000E-02
      12131               0.300000E-02
      12132               0.300000E-02
      12133               0.300000E-02
      12134               0.300000E-02
      12135               0.300000E-02
      12136               0.300000E-02
      12137               0.300000E-02
      12138               0.300000E-02
      12139               0.300000E-02
      12140               0.300000E-02
      12141               0.300000E-02
      12142               0.300000E-02
      12143               0.300000E-02
      12144               0.300000E-02
      12145               0.300000E-02
      12146               0.300000E-02
      12147               0.300000E-02
      12148               0.300000E-02
      12149               0.300000E-02
      12150               0.300000E-02
      12151               0.300000E-02
      12152               0.300000E-02
      12153               0.300000E-02
      12154               0.300000E-02
      12155               0.300000E-02
      12156               0.300000E-02
      12157               0.300000E-02
      12158               0.300000E-02
      12159               0.300000E-02
      12160               0.300000E-02
      12161               0.300000E-02
      12162               0.300000E-02
      12163               0.300000E-02
      12164               0.300000E-02
      12165               0.300000E-02
      12166               0.300000E-02
      12167               0.300000E-02
      12168               0.300000E-02
      12169               0.300000E-02
      12170               0.300000E-02
      12171               0.300000E-02
      12172               0.300000E-02
      12173               0.300000E-02
      12174               0.300000E-02
      12175               0.300000E-02
      12176               0.300000E-02
      12177               0.300000E-02
      12178               0.300000E-02
      12179               0.300000E-02
      12180               0.300000E-02
      12181               0.300000E-02
      12182               0.300000E-02
      12183               0.300000E-02
      12184               0.300000E-02
      12185               0.300000E-02
      12186               0.300000E-02
      12187               0.300000E-02
      12188               0.300000E-02
      12189               0.300000E-02
      12190               0.300000E-02
      12191               0.300000E-02
      12192               0.300000E-02
      12193               0.300000E-02
      12194               0.300000E-02
      12195               0.300000E-02
      12196               0.300000E-02
      12197               0.300000E-02
      12198               0.300000E-02
      12199               0.300000E-02
      12200               0.300000E-02
      12201               0.300000E-02
      12202               0.300000E-02
      12203               0.300000E-02
      12204               0.300000E-02
      12205               0.300000E-02
      12206               0.300000E-02
      12207               0.300000E-02
      12208               0.300000E-02
      12209               0.300000E-02
      12210               0.300000E-02
      12211               0.300000E-02
      12212               0.300000E-02
      12213               0.300000E-02
      12214               0.300000E-02
      12215               0.300000E-02
      12216               0.300000E-02
      12217               0.300000E-02
      12218               0.300000E-02
      12219               0.300000E-02
      12220               0.300000E-02
      12221               0.300000E-02
      12222               0.300000E-02
      12223               0.300000E-02
      12224               0.300000E-02
      12225               0.300000E-02
      12226               0.300000E-02
      12227               0.300000E-02
      12228               0.300000E-02
      12229               0.300000E-02
      12230               0.300000E-02
      12231               0.300000E-02
      12232               0.300000E-02
      12233               0.300000E-02
      12234               0.300000E-02
      12235               0.300000E-02
      12236               0.300000E-02
      12237               0.300000E-02
      12238               0.300000E-02
      12239               0.300000E-02
      12240               0.300000E-02
      12241               0.300000E-02
      12242               0.300000E-02
      12243               0.300000E-02
      12244               0.300000E-02
      12245               0.300000E-02
      12246               0.300000E-02
      12247               0.300000E-02
      12248               0.300000E-02
      12249               0.300000E-02
      12250               0.300000E-02
      12251               0.300000E-02
      12252               0.300000E-02
      12253               0.300000E-02
      12254               0.300000E-02
      12255               0.300000E-02
      12256               0.300000E-02
      12257               0.382014E-02
      12258               0.300000E-02
      12259               0.300000E-02
      12260               0.300000E-02
      12261               0.300000E-02
      12262               0.300000E-02
      12263               0.300000E-02
      12264               0.300000E-02
      12265               0.300000E-02
      12266               0.300000E-02
      12267               0.300000E-02
      12268               0.300000E-02
      12269               0.300000E-02
      12270               0.300000E-02
      12271               0.300000E-02
      12272               0.300000E-02
      12273               0.300000E-02
      12274               0.300000E-02
      12275               0.300000E-02
      12276               0.300000E-02
      12277               0.300000E-02
      12278               0.300000E-02
      12279               0.300000E-02
      12280               0.300000E-02
      12281               0.300000E-02
      12282               0.300000E-02
      12283               0.300000E-02
      12284               0.300000E-02
      12285               0.300000E-02
      12286               0.300000E-02
      12287               0.300000E-02
      12288               0.300000E-02
      12289               0.300000E-02
      12290               0.300000E-02
      12291               0.300000E-02
      12292               0.300000E-02
      12293               0.300000E-02
      12294               0.300000E-02
      12295               0.300000E-02
      12296               0.300000E-02
      12297               0.300000E-02
      12298               0.300000E-02
      12299               0.300000E-02
      12300               0.300000E-02
      12301               0.300000E-02
      12302               0.300000E-02
      12303               0.300000E-02
      12304               0.300000E-02
      12305               0.300000E-02
      12306               0.300000E-02
      12307               0.300000E-02
      12308               0.300000E-02
      12309               0.300000E-02
      12310               0.300000E-02
      12311               0.300000E-02
      12312               0.300000E-02
      12313               0.300000E-02
      12314               0.300000E-02
      12315               0.300000E-02
      12316               0.300000E-02
      12317               0.300000E-02
      12318               0.300000E-02
      12319               0.300000E-02
      12320               0.300000E-02
      12321               0.300000E-02
      12322               0.300000E-02
      12323               0.300000E-02
      12324               0.300000E-02
      12325               0.300000E-02
      12326               0.300000E-02
      12327               0.300000E-02
      12328               0.300000E-02
      12329               0.300000E-02
      12330               0.300000E-02
      12331               0.300000E-02
      12332               0.300000E-02
      12333               0.300000E-02
      12334               0.300000E-02
      12335               0.300000E-02
      12336               0.300000E-02
      12337               0.300000E-02
      12338               0.300000E-02
      12339               0.300000E-02
      12340               0.300000E-02
      12341               0.300000E-02
      12342               0.300000E-02
      12343               0.300000E-02
      12344               0.300000E-02
      12345               0.300000E-02
      12346               0.300000E-02
      12347               0.300000E-02
      12348               0.300000E-02
      12349               0.300000E-02
      12350               0.300000E-02
      12351               0.300000E-02
      12352               0.300000E-02
      12353               0.300000E-02
      12354               0.300000E-02
      12355               0.300000E-02
      12356               0.300000E-02
      12357               0.300000E-02
      12358               0.300000E-02
      12359               0.300000E-02
      12360               0.300000E-02
      12361               0.300000E-02
      12362               0.300000E-02
      12363               0.300000E-02
      12364               0.300000E-02
      12365               0.300000E-02
      12366               0.300000E-02
      12367               0.300000E-02
      12368               0.300000E-02
      12369               0.300000E-02
      12370               0.300000E-02
      12371               0.300000E-02
      12372               0.300000E-02
      12373               0.300000E-02
      12374               0.300000E-02
      12375               0.300000E-02
      12376               0.300000E-02
      12377               0.300000E-02
      12378               0.300000E-02
      12379               0.300000E-02
      12380               0.300000E-02
      12381               0.300000E-02
      12382               0.300000E-02
      12383               0.300000E-02
      12384               0.300000E-02
      12385               0.300000E-02
      12386               0.300000E-02
      12387               0.300000E-02
      12388               0.300000E-02
      12389               0.300000E-02
      12390               0.300000E-02
      12391               0.300000E-02
      12392               0.300000E-02
      12393               0.300000E-02
      12394               0.300000E-02
      12395               0.300000E-02
      12396               0.300000E-02
      12397               0.300000E-02
      12398               0.300000E-02
      12399               0.300000E-02
      12400               0.300000E-02
      12401               0.300000E-02
      12402               0.300000E-02
      12403               0.300000E-02
      12404               0.300000E-02
      12405               0.300000E-02
      12406               0.300000E-02
      12407               0.300000E-02
      12408               0.300000E-02
      12409               0.300000E-02
      12410               0.300000E-02
      12411               0.300000E-02
      12412               0.300000E-02
      12413               0.300000E-02
      12414               0.300000E-02
      12415               0.300000E-02
      12416               0.300000E-02
      12417               0.300000E-02
      12418               0.300000E-02
      12419               0.300000E-02
      12420               0.300000E-02
      12421               0.300000E-02
      12422               0.300000E-02
      12423               0.300000E-02
      12424               0.300000E-02
      12425               0.300000E-02
      12426               0.300000E-02
      12427               0.300000E-02
      12428               0.300000E-02
      12429               0.300000E-02
      12430               0.300000E-02
      12431               0.300000E-02
      12432               0.300000E-02
      12433               0.300000E-02
      12434               0.300000E-02
      12435               0.300000E-02
      12436               0.300000E-02
      12437               0.300000E-02
      12438               0.300000E-02
      12439               0.300000E-02
      12440               0.300000E-02
      12441               0.300000E-02
      12442               0.300000E-02
      12443               0.300000E-02
      12444               0.300000E-02
      12445               0.300000E-02
      12446               0.300000E-02
      12447               0.300000E-02
      12448               0.300000E-02
      12449               0.300000E-02
      12450               0.300000E-02
      12451               0.300000E-02
      12452               0.300000E-02
      12453               0.300000E-02
      12454               0.300000E-02
      12455               0.300000E-02
      12456               0.300000E-02
      12457               0.300000E-02
      12458               0.300000E-02
      12459               0.300000E-02
      12460               0.300000E-02
      12461               0.300000E-02
      12462               0.300000E-02
      12463               0.300000E-02
      12464               0.300000E-02
      12465               0.300000E-02
      12466               0.300000E-02
      12467               0.300000E-02
      12468               0.300000E-02
      12469               0.300000E-02
      12470               0.300000E-02
      12471               0.300000E-02
      12472               0.300000E-02
      12473               0.300000E-02
      12474               0.300000E-02
      12475               0.300000E-02
      12476               0.300000E-02
      12477               0.300000E-02
      12478               0.300000E-02
      12479               0.300000E-02
      12480               0.300000E-02
      12481               0.300000E-02
      12482               0.300000E-02
      12483               0.300000E-02
      12484               0.300000E-02
      12485               0.300000E-02
      12486               0.300000E-02
      12487               0.300000E-02
      12488               0.300000E-02
      12489               0.300000E-02
      12490               0.300000E-02
      12491               0.300000E-02
      12492               0.300000E-02
      12493               0.300000E-02
      12494               0.300000E-02
      12495               0.300000E-02
      12496               0.300000E-02
      12497               0.300000E-02
      12498               0.300000E-02
      12499               0.300000E-02
      12500               0.300000E-02
      12501               0.300000E-02
      12502               0.300000E-02
      12503               0.300000E-02
      12504               0.300000E-02
      12505               0.300000E-02
      12506               0.300000E-02
      12507               0.300000E-02
      12508               0.300000E-02
      12509               0.300000E-02
      12510               0.300000E-02
      12511               0.300000E-02
      12512               0.300000E-02
      12513               0.300000E-02
      12514               0.300000E-02
      12515               0.300000E-02
      12516               0.300000E-02
      12517               0.300000E-02
      12518               0.300000E-02
      12519               0.300000E-02
      12520               0.300000E-02
      12521               0.300000E-02
      12522               0.300000E-02
      12523               0.300000E-02
      12524               0.300000E-02
      12525               0.300000E-02
      12526               0.300000E-02
      12527               0.300000E-02
      12528               0.300000E-02
      12529               0.300000E-02
      12530               0.300000E-02
      12531               0.300000E-02
      12532               0.300000E-02
      12533               0.300000E-02
      12534               0.300000E-02
      12535               0.300000E-02
      12536               0.300000E-02
      12537               0.300000E-02
      12538               0.300000E-02
      12539               0.300000E-02
      12540               0.300000E-02
      12541               0.300000E-02
      12542               0.300000E-02
      12543               0.300000E-02
      12544               0.300000E-02
      12545               0.300000E-02
      12546               0.300000E-02
      12547               0.300000E-02
      12548               0.300000E-02
      12549               0.300000E-02
      12550               0.300000E-02
      12551               0.300000E-02
      12552               0.300000E-02
      12553               0.300000E-02
      12554               0.300000E-02
      12555               0.300000E-02
      12556               0.300000E-02
      12557               0.300000E-02
      12558               0.300000E-02
      12559               0.300000E-02
      12560               0.300000E-02
      12561               0.300000E-02
      12562               0.300000E-02
      12563               0.300000E-02
      12564               0.300000E-02
      12565               0.300000E-02
      12566               0.300000E-02
      12567               0.300000E-02
      12568               0.300000E-02
      12569               0.300000E-02
      12570               0.300000E-02
      12571               0.300000E-02
      12572               0.300000E-02
      12573               0.300000E-02
      12574               0.300000E-02
      12575               0.300000E-02
      12576               0.300000E-02
      12577               0.300000E-02
      12578               0.300000E-02
      12579               0.300000E-02
      12580               0.300000E-02
      12581               0.300000E-02
      12582               0.300000E-02
      12583               0.300000E-02
      12584               0.300000E-02
      12585               0.300000E-02
      12586               0.300000E-02
      12587               0.300000E-02
      12588               0.300000E-02
      12589               0.300000E-02
      12590               0.300000E-02
      12591               0.300000E-02
      12592               0.300000E-02
      12593               0.300000E-02
      12594               0.300000E-02
      12595               0.300000E-02
      12596               0.300000E-02
      12597               0.300000E-02
      12598               0.300000E-02
      12599               0.300000E-02
      12600               0.300000E-02
      12601               0.300000E-02
      12602               0.300000E-02
      12603               0.300000E-02
      12604               0.300000E-02
      12605               0.300000E-02
      12606               0.300000E-02
      12607               0.300000E-02
      12608               0.300000E-02
      12609               0.300000E-02
      12610               0.300000E-02
      12611               0.300000E-02
      12612               0.300000E-02
      12613               0.300000E-02
      12614               0.300000E-02
      12615               0.300000E-02
      12616               0.300000E-02
      12617               0.300000E-02
      12618               0.300000E-02
      12619               0.300000E-02
      12620               0.300000E-02
      12621               0.300000E-02
      12622               0.300000E-02
      12623               0.300000E-02
      12624               0.300000E-02
      12625               0.300000E-02
      12626               0.300000E-02
      12627               0.300000E-02
      12628               0.300000E-02
      12629               0.300000E-02
      12630               0.300000E-02
      12631               0.300000E-02
      12632               0.300000E-02
      12633               0.300000E-02
      12634               0.300000E-02
      12635               0.300000E-02
      12636               0.300000E-02
      12637               0.300000E-02
      12638               0.300000E-02
      12639               0.300000E-02
      12640               0.300000E-02
      12641               0.300000E-02
      12642               0.300000E-02
      12643               0.300000E-02
      12644               0.300000E-02
      12645               0.300000E-02
      12646               0.300000E-02
      12647               0.300000E-02
      12648               0.300000E-02
      12649               0.300000E-02
      12650               0.300000E-02
      12651               0.300000E-02
      12652               0.300000E-02
      12653               0.300000E-02
      12654               0.300000E-02
      12655               0.300000E-02
      12656               0.300000E-02
      12657               0.300000E-02
      12658               0.300000E-02
      12659               0.300000E-02
      12660               0.300000E-02
      12661               0.300000E-02
      12662               0.300000E-02
      12663               0.300000E-02
      12664               0.300000E-02
      12665               0.300000E-02
      12666               0.300000E-02
      12667               0.300000E-02
      12668               0.300000E-02
      12669               0.300000E-02
      12670               0.300000E-02
      12671               0.300000E-02
      12672               0.300000E-02
      12673               0.300000E-02
      12674               0.300000E-02
      12675               0.300000E-02
      12676               0.300000E-02
      12677               0.300000E-02
      12678               0.300000E-02
      12679               0.300000E-02
      12680               0.300000E-02
      12681               0.300000E-02
      12682               0.300000E-02
      12683               0.300000E-02
      12684               0.300000E-02
      12685               0.300000E-02
      12686               0.300000E-02
      12687               0.300000E-02
      12688               0.300000E-02
      12689               0.300000E-02
      12690               0.300000E-02
      12691               0.300000E-02
      12692               0.300000E-02
      12693               0.300000E-02
      12694               0.300000E-02
      12695               0.300000E-02
      12696               0.300000E-02
      12697               0.300000E-02
      12698               0.300000E-02
      12699               0.300000E-02
      12700               0.300000E-02
      12701               0.300000E-02
      12702               0.300000E-02
      12703               0.300000E-02
      12704               0.300000E-02
      12705               0.300000E-02
      12706               0.300000E-02
      12707               0.300000E-02
      12708               0.300000E-02
      12709               0.300000E-02
      12710               0.300000E-02
      12711               0.300000E-02
      12712               0.300000E-02
      12713               0.300000E-02
      12714               0.300000E-02
      12715               0.300000E-02
      12716               0.300000E-02
      12717               0.300000E-02
      12718               0.300000E-02
      12719               0.300000E-02
      12720               0.300000E-02
      12721               0.300000E-02
      12722               0.300000E-02
      12723               0.300000E-02
      12724               0.300000E-02
      12725               0.300000E-02
      12726               0.300000E-02
      12727               0.300000E-02
      12728               0.300000E-02
      12729               0.300000E-02
      12730               0.300000E-02
      12731               0.300000E-02
      12732               0.300000E-02
      12733               0.300000E-02
      12734               0.300000E-02
      12735               0.300000E-02
      12736               0.300000E-02
      12737               0.300000E-02
      12738               0.300000E-02
      12739               0.300000E-02
      12740               0.300000E-02
      12741               0.300000E-02
      12742               0.300000E-02
      12743               0.300000E-02
      12744               0.300000E-02
      12745               0.300000E-02
      12746               0.300000E-02
      12747               0.300000E-02
      12748               0.300000E-02
      12749               0.300000E-02
      12750               0.300000E-02
      12751               0.300000E-02
      12752               0.300000E-02
      12753               0.300000E-02
      12754               0.300000E-02
      12755               0.300000E-02
      12756               0.300000E-02
      12757               0.300000E-02
      12758               0.300000E-02
      12759               0.300000E-02
      12760               0.300000E-02
      12761               0.300000E-02
      12762               0.300000E-02
      12763               0.300000E-02
      12764               0.300000E-02
      12765               0.300000E-02
      12766               0.300000E-02
      12767               0.300000E-02
      12768               0.300000E-02
      12769               0.300000E-02
      12770               0.300000E-02
      12771               0.300000E-02
      12772               0.300000E-02
      12773               0.300000E-02
      12774               0.300000E-02
      12775               0.300000E-02
      12776               0.300000E-02
      12777               0.300000E-02
      12778               0.300000E-02
      12779               0.300000E-02
      12780               0.300000E-02
      12781               0.300000E-02
      12782               0.300000E-02
      12783               0.300000E-02
      12784               0.300000E-02
      12785               0.300000E-02
      12786               0.300000E-02
      12787               0.300000E-02
      12788               0.300000E-02
      12789               0.300000E-02
      12790               0.300000E-02
      12791               0.300000E-02
      12792               0.300000E-02
      12793               0.300000E-02
      12794               0.300000E-02
      12795               0.300000E-02
      12796               0.300000E-02
      12797               0.300000E-02
      12798               0.300000E-02
      12799               0.300000E-02
      12800               0.300000E-02
      12801               0.300000E-02
      12802               0.300000E-02
      12803               0.300000E-02
      12804               0.300000E-02
      12805               0.300000E-02
      12806               0.300000E-02
      12807               0.300000E-02
      12808               0.300000E-02
      12809               0.300000E-02
      12810               0.300000E-02
      12811               0.300000E-02
      12812               0.300000E-02
      12813               0.300000E-02
      12814               0.300000E-02
      12815               0.300000E-02
      12816               0.300000E-02
      12817               0.300000E-02
      12818               0.300000E-02
      12819               0.300000E-02
      12820               0.300000E-02
      12821               0.300000E-02
      12822               0.300000E-02
      12823               0.300000E-02
      12824               0.300000E-02
      12825               0.300000E-02
      12826               0.300000E-02
      12827               0.300000E-02
      12828               0.300000E-02
      12829               0.300000E-02
      12830               0.300000E-02
      12831               0.300000E-02
      12832               0.300000E-02
      12833               0.300000E-02
      12834               0.300000E-02
      12835               0.300000E-02
      12836               0.300000E-02
      12837               0.300000E-02
      12838               0.300000E-02
      12839               0.300000E-02
      12840               0.300000E-02
      12841               0.300000E-02
      12842               0.300000E-02
      12843               0.300000E-02
      12844               0.300000E-02
      12845               0.300000E-02
      12846               0.300000E-02
      12847               0.300000E-02
      12848               0.300000E-02
      12849               0.300000E-02
      12850               0.300000E-02
      12851               0.300000E-02
      12852               0.300000E-02
      12853               0.300000E-02
      12854               0.300000E-02
      12855               0.300000E-02
      12856               0.300000E-02
      12857               0.300000E-02
      12858               0.300000E-02
      12859               0.300000E-02
      12860               0.300000E-02
      12861               0.300000E-02
      12862               0.300000E-02
      12863               0.300000E-02
      12864               0.300000E-02
      12865               0.300000E-02
      12866               0.300000E-02
      12867               0.300000E-02
      12868               0.300000E-02
      12869               0.300000E-02
      12870               0.300000E-02
      12871               0.300000E-02
      12872               0.300000E-02
      12873               0.300000E-02
      12874               0.300000E-02
      12875               0.300000E-02
      12876               0.300000E-02
      12877               0.300000E-02
      12878               0.300000E-02
      12879               0.300000E-02
      12880               0.300000E-02
      12881               0.300000E-02
      12882               0.300000E-02
      12883               0.300000E-02
      12884               0.300000E-02
      12885               0.300000E-02
      12886               0.300000E-02
      12887               0.300000E-02
      12888               0.300000E-02
      12889               0.300000E-02
      12890               0.300000E-02
      12891               0.300000E-02
      12892               0.300000E-02
      12893               0.300000E-02
      12894               0.300000E-02
      12895               0.300000E-02
      12896               0.300000E-02
      12897               0.300000E-02
      12898               0.300000E-02
      12899               0.300000E-02
      12900               0.300000E-02
      12901               0.300000E-02
      12902               0.300000E-02
      12903               0.300000E-02
      12904               0.300000E-02
      12905               0.300000E-02
      12906               0.300000E-02
      12907               0.300000E-02
      12908               0.300000E-02
      12909               0.300000E-02
      12910               0.300000E-02
      12911               0.300000E-02
      12912               0.300000E-02
      12913               0.300000E-02
      12914               0.300000E-02
      12915               0.300000E-02
      12916               0.300000E-02
      12917               0.300000E-02
      12918               0.300000E-02
      12919               0.300000E-02
      12920               0.300000E-02
      12921               0.300000E-02
      12922               0.300000E-02
      12923               0.300000E-02
      12924               0.300000E-02
      12925               0.300000E-02
      12926               0.300000E-02
      12927               0.300000E-02
      12928               0.300000E-02
      12929               0.300000E-02
      12930               0.300000E-02
      12931               0.300000E-02
      12932               0.300000E-02
      12933               0.300000E-02
      12934               0.300000E-02
      12935               0.300000E-02
      12936               0.300000E-02
      12937               0.300000E-02
      12938               0.300000E-02
      12939               0.300000E-02
      12940               0.300000E-02
      12941               0.300000E-02
      12942               0.300000E-02
      12943               0.300000E-02
      12944               0.300000E-02
      12945               0.300000E-02
      12946               0.300000E-02
      12947               0.300000E-02
      12948               0.300000E-02
      12949               0.300000E-02
      12950               0.300000E-02
      12951               0.300000E-02
      12952               0.300000E-02
      12953               0.300000E-02
      12954               0.300000E-02
      12955               0.300000E-02
      12956               0.300000E-02
      12957               0.300000E-02
      12958               0.300000E-02
      12959               0.300000E-02
      12960               0.300000E-02
      12961               0.300000E-02
      12962               0.300000E-02
      12963               0.300000E-02
      12964               0.300000E-02
      12965               0.300000E-02
      12966               0.300000E-02
      12967               0.300000E-02
      12968               0.300000E-02
      12969               0.300000E-02
      12970               0.300000E-02
      12971               0.300000E-02
      12972               0.300000E-02
      12973               0.300000E-02
      12974               0.300000E-02
      12975               0.300000E-02
      12976               0.300000E-02
      12977               0.300000E-02
      12978               0.300000E-02
      12979               0.300000E-02
      12980               0.300000E-02
      12981               0.300000E-02
      12982               0.300000E-02
      12983               0.300000E-02
      12984               0.300000E-02
      12985               0.300000E-02
      12986               0.300000E-02
      12987               0.300000E-02
      12988               0.979546E-02
      12989               0.300000E-02
      12990               0.300000E-02
      12991               0.300000E-02
      12992               0.300000E-02
      12993               0.300000E-02
      12994               0.300000E-02
      12995               0.300000E-02
      12996               0.300000E-02
      12997               0.300000E-02
      12998               0.300000E-02
      12999               0.300000E-02
      13000               0.300000E-02
      13001               0.300000E-02
      13002               0.300000E-02
      13003               0.300000E-02
      13004               0.300000E-02
      13005               0.300000E-02
      13006               0.300000E-02
      13007               0.300000E-02
      13008               0.300000E-02
      13009               0.300000E-02
      13010               0.300000E-02
      13011               0.300000E-02
      13012               0.300000E-02
      13013               0.300000E-02
      13014               0.300000E-02
      13015               0.300000E-02
      13016               0.300000E-02
      13017               0.300000E-02
      13018               0.300000E-02
      13019               0.300000E-02
      13020               0.300000E-02
      13021               0.300000E-02
      13022               0.300000E-02
      13023               0.300000E-02
      13024               0.300000E-02
      13025               0.300000E-02
      13026               0.300000E-02
      13027               0.300000E-02
      13028               0.300000E-02
      13029               0.300000E-02
      13030               0.300000E-02
      13031               0.300000E-02
      13032               0.300000E-02
      13033               0.300000E-02
      13034               0.300000E-02
      13035               0.300000E-02
      13036               0.300000E-02
      13037               0.300000E-02
      13038               0.300000E-02
      13039               0.300000E-02
      13040               0.300000E-02
      13041               0.300000E-02
      13042               0.300000E-02
      13043               0.300000E-02
      13044               0.300000E-02
      13045               0.300000E-02
      13046               0.300000E-02
      13047               0.300000E-02
      13048               0.300000E-02
      13049               0.300000E-02
      13050               0.300000E-02
      13051               0.300000E-02
      13052               0.300000E-02
      13053               0.300000E-02
      13054               0.300000E-02
      13055               0.300000E-02
      13056               0.300000E-02
      13057               0.300000E-02
      13058               0.300000E-02
      13059               0.300000E-02
      13060               0.300000E-02
      13061               0.300000E-02
      13062               0.300000E-02
      13063               0.300000E-02
      13064               0.300000E-02
      13065               0.300000E-02
      13066               0.300000E-02
      13067               0.300000E-02
      13068               0.300000E-02
      13069               0.300000E-02
      13070               0.300000E-02
      13071               0.300000E-02
      13072               0.300000E-02
      13073               0.300000E-02
      13074               0.300000E-02
      13075               0.300000E-02
      13076               0.300000E-02
      13077               0.300000E-02
      13078               0.300000E-02
      13079               0.300000E-02
      13080               0.300000E-02
      13081               0.300000E-02
      13082               0.300000E-02
      13083               0.300000E-02
      13084               0.300000E-02
      13085               0.300000E-02
      13086               0.300000E-02
      13087               0.300000E-02
      13088               0.300000E-02
      13089               0.300000E-02
      13090               0.300000E-02
      13091               0.300000E-02
      13092               0.300000E-02
      13093               0.300000E-02
      13094               0.300000E-02
      13095               0.300000E-02
      13096               0.300000E-02
      13097               0.300000E-02
      13098               0.300000E-02
      13099               0.300000E-02
      13100               0.300000E-02
      13101               0.300000E-02
      13102               0.300000E-02
      13103               0.300000E-02
      13104               0.300000E-02
      13105               0.300000E-02
      13106               0.300000E-02
      13107               0.300000E-02
      13108               0.300000E-02
      13109               0.300000E-02
      13110               0.300000E-02
      13111               0.300000E-02
      13112               0.300000E-02
      13113               0.300000E-02
      13114               0.300000E-02
      13115               0.300000E-02
      13116               0.300000E-02
      13117               0.300000E-02
      13118               0.300000E-02
      13119               0.300000E-02
      13120               0.300000E-02
      13121               0.300000E-02
      13122               0.300000E-02
      13123               0.300000E-02
      13124               0.300000E-02
      13125               0.300000E-02
      13126               0.300000E-02
      13127               0.300000E-02
      13128               0.300000E-02
      13129               0.300000E-02
      13130               0.300000E-02
      13131               0.300000E-02
      13132               0.300000E-02
      13133               0.300000E-02
      13134               0.300000E-02
      13135               0.300000E-02
      13136               0.300000E-02
      13137               0.300000E-02
      13138               0.300000E-02
      13139               0.300000E-02
      13140               0.300000E-02
      13141               0.300000E-02
      13142               0.300000E-02
      13143               0.300000E-02
      13144               0.300000E-02
      13145               0.300000E-02
      13146               0.300000E-02
      13147               0.300000E-02
      13148               0.300000E-02
      13149               0.300000E-02
      13150               0.300000E-02
      13151               0.300000E-02
      13152               0.300000E-02
      13153               0.300000E-02
      13154               0.300000E-02
      13155               0.300000E-02
      13156               0.300000E-02
      13157               0.300000E-02
      13158               0.300000E-02
      13159               0.300000E-02
      13160               0.300000E-02
      13161               0.300000E-02
      13162               0.300000E-02
      13163               0.300000E-02
      13164               0.300000E-02
      13165               0.300000E-02
      13166               0.300000E-02
      13167               0.300000E-02
      13168               0.300000E-02
      13169               0.300000E-02
      13170               0.300000E-02
      13171               0.300000E-02
      13172               0.300000E-02
      13173               0.300000E-02
      13174               0.300000E-02
      13175               0.300000E-02
      13176               0.300000E-02
      13177               0.300000E-02
      13178               0.300000E-02
      13179               0.300000E-02
      13180               0.300000E-02
      13181               0.300000E-02
      13182               0.300000E-02
      13183               0.300000E-02
      13184               0.300000E-02
      13185               0.300000E-02
      13186               0.300000E-02
      13187               0.300000E-02
      13188               0.300000E-02
      13189               0.300000E-02
      13190               0.300000E-02
      13191               0.300000E-02
      13192               0.300000E-02
      13193               0.300000E-02
      13194               0.300000E-02
      13195               0.300000E-02
      13196               0.300000E-02
      13197               0.300000E-02
      13198               0.300000E-02
      13199               0.300000E-02
      13200               0.300000E-02
      13201               0.300000E-02
      13202               0.300000E-02
      13203               0.300000E-02
      13204               0.300000E-02
      13205               0.300000E-02
      13206               0.300000E-02
      13207               0.300000E-02
      13208               0.300000E-02
      13209               0.300000E-02
      13210               0.300000E-02
      13211               0.300000E-02
      13212               0.300000E-02
      13213               0.300000E-02
      13214               0.300000E-02
      13215               0.300000E-02
      13216               0.300000E-02
      13217               0.300000E-02
      13218               0.300000E-02
      13219               0.300000E-02
      13220               0.300000E-02
      13221               0.300000E-02
      13222               0.300000E-02
      13223               0.300000E-02
      13224               0.300000E-02
      13225               0.300000E-02
      13226               0.300000E-02
      13227               0.300000E-02
      13228               0.300000E-02
      13229               0.300000E-02
      13230               0.300000E-02
      13231               0.300000E-02
      13232               0.300000E-02
      13233               0.300000E-02
      13234               0.300000E-02
      13235               0.300000E-02
      13236               0.300000E-02
      13237               0.300000E-02
      13238               0.300000E-02
      13239               0.300000E-02
      13240               0.300000E-02
      13241               0.300000E-02
      13242               0.300000E-02
      13243               0.300000E-02
      13244               0.300000E-02
      13245               0.300000E-02
      13246               0.300000E-02
      13247               0.300000E-02
      13248               0.300000E-02
      13249               0.300000E-02
      13250               0.300000E-02
      13251               0.300000E-02
      13252               0.300000E-02
      13253               0.300000E-02
      13254               0.300000E-02
      13255               0.300000E-02
      13256               0.300000E-02
      13257               0.300000E-02
      13258               0.300000E-02
      13259               0.300000E-02
      13260               0.300000E-02
      13261               0.300000E-02
      13262               0.300000E-02
      13263               0.300000E-02
      13264               0.300000E-02
      13265               0.300000E-02
      13266               0.300000E-02
      13267               0.300000E-02
      13268               0.300000E-02
      13269               0.300000E-02
      13270               0.300000E-02
      13271               0.300000E-02
      13272               0.300000E-02
      13273               0.300000E-02
      13274               0.300000E-02
      13275               0.300000E-02
      13276               0.300000E-02
      13277               0.300000E-02
      13278               0.300000E-02
      13279               0.300000E-02
      13280               0.300000E-02
      13281               0.300000E-02
      13282               0.300000E-02
      13283               0.300000E-02
      13284               0.300000E-02
      13285               0.300000E-02
      13286               0.300000E-02
      13287               0.300000E-02
      13288               0.300000E-02
      13289               0.300000E-02
      13290               0.300000E-02
      13291               0.300000E-02
      13292               0.300000E-02
      13293               0.300000E-02
      13294               0.300000E-02
      13295               0.300000E-02
      13296               0.300000E-02
      13297               0.300000E-02
      13298               0.300000E-02
      13299               0.300000E-02
      13300               0.300000E-02
      13301               0.300000E-02
      13302               0.300000E-02
      13303               0.300000E-02
      13304               0.300000E-02
      13305               0.300000E-02
      13306               0.300000E-02
      13307               0.300000E-02
      13308               0.300000E-02
      13309               0.300000E-02
      13310               0.300000E-02
      13311               0.300000E-02
      13312               0.300000E-02
      13313               0.300000E-02
      13314               0.300000E-02
      13315               0.300000E-02
      13316               0.300000E-02
      13317               0.300000E-02
      13318               0.300000E-02
      13319               0.300000E-02
      13320               0.300000E-02
      13321               0.300000E-02
      13322               0.300000E-02
      13323               0.300000E-02
      13324               0.300000E-02
      13325               0.300000E-02
      13326               0.300000E-02
      13327               0.300000E-02
      13328               0.300000E-02
      13329               0.300000E-02
      13330               0.300000E-02
      13331               0.300000E-02
      13332               0.300000E-02
      13333               0.300000E-02
      13334               0.300000E-02
      13335               0.300000E-02
      13336               0.300000E-02
      13337               0.300000E-02
      13338               0.300000E-02
      13339               0.300000E-02
      13340               0.300000E-02
      13341               0.300000E-02
      13342               0.300000E-02
      13343               0.300000E-02
      13344               0.300000E-02
      13345               0.300000E-02
      13346               0.300000E-02
      13347               0.300000E-02
      13348               0.300000E-02
      13349               0.300000E-02
      13350               0.300000E-02
      13351               0.300000E-02
      13352               0.300000E-02
      13353               0.300000E-02
      13354               0.300000E-02
      13355               0.300000E-02
      13356               0.300000E-02
      13357               0.300000E-02
      13358               0.300000E-02
      13359               0.300000E-02
      13360               0.300000E-02
      13361               0.300000E-02
      13362               0.300000E-02
      13363               0.300000E-02
      13364               0.300000E-02
      13365               0.300000E-02
      13366               0.300000E-02
      13367               0.300000E-02
      13368               0.300000E-02
      13369               0.300000E-02
      13370               0.300000E-02
      13371               0.300000E-02
      13372               0.300000E-02
      13373               0.300000E-02
      13374               0.300000E-02
      13375               0.300000E-02
      13376               0.300000E-02
      13377               0.300000E-02
      13378               0.300000E-02
      13379               0.300000E-02
      13380               0.300000E-02
      13381               0.300000E-02
      13382               0.300000E-02
      13383               0.300000E-02
      13384               0.300000E-02
      13385               0.300000E-02
      13386               0.300000E-02
      13387               0.300000E-02
      13388               0.300000E-02
      13389               0.300000E-02
      13390               0.300000E-02
      13391               0.300000E-02
      13392               0.300000E-02
      13393               0.300000E-02
      13394               0.300000E-02
      13395               0.300000E-02
      13396               0.300000E-02
      13397               0.300000E-02
      13398               0.300000E-02
      13399               0.300000E-02
      13400               0.300000E-02
      13401               0.300000E-02
      13402               0.300000E-02
      13403               0.300000E-02
      13404               0.300000E-02
      13405               0.300000E-02
      13406               0.300000E-02
      13407               0.300000E-02
      13408               0.300000E-02
      13409               0.300000E-02
      13410               0.300000E-02
      13411               0.300000E-02
      13412               0.300000E-02
      13413               0.300000E-02
      13414               0.300000E-02
      13415               0.300000E-02
      13416               0.300000E-02
      13417               0.300000E-02
      13418               0.300000E-02
      13419               0.300000E-02
      13420               0.300000E-02
      13421               0.300000E-02
      13422               0.300000E-02
      13423               0.300000E-02
      13424               0.300000E-02
      13425               0.300000E-02
      13426               0.300000E-02
      13427               0.300000E-02
      13428               0.300000E-02
      13429               0.300000E-02
      13430               0.300000E-02
      13431               0.300000E-02
      13432               0.300000E-02
      13433               0.300000E-02
      13434               0.300000E-02
      13435               0.300000E-02
      13436               0.300000E-02
      13437               0.300000E-02
      13438               0.300000E-02
      13439               0.300000E-02
      13440               0.300000E-02
      13441               0.300000E-02
      13442               0.300000E-02
      13443               0.300000E-02
      13444               0.300000E-02
      13445               0.300000E-02
      13446               0.300000E-02
      13447               0.300000E-02
      13448               0.300000E-02
      13449               0.300000E-02
      13450               0.300000E-02
      13451               0.300000E-02
      13452               0.300000E-02
      13453               0.300000E-02
      13454               0.300000E-02
      13455               0.300000E-02
      13456               0.300000E-02
      13457               0.300000E-02
      13458               0.300000E-02
      13459               0.300000E-02
      13460               0.300000E-02
      13461               0.300000E-02
      13462               0.300000E-02
      13463               0.300000E-02
      13464               0.300000E-02
      13465               0.300000E-02
      13466               0.300000E-02
      13467               0.300000E-02
      13468               0.300000E-02
      13469               0.300000E-02
      13470               0.300000E-02
      13471               0.300000E-02
      13472               0.300000E-02
      13473               0.300000E-02
      13474               0.300000E-02
      13475               0.300000E-02
      13476               0.300000E-02
      13477               0.300000E-02
      13478               0.300000E-02
      13479               0.300000E-02
      13480               0.300000E-02
      13481               0.300000E-02
      13482               0.300000E-02
      13483               0.300000E-02
      13484               0.300000E-02
      13485               0.300000E-02
      13486               0.300000E-02
      13487               0.300000E-02
      13488               0.300000E-02
      13489               0.300000E-02
      13490               0.300000E-02
      13491               0.300000E-02
      13492               0.300000E-02
      13493               0.300000E-02
      13494               0.300000E-02
      13495               0.300000E-02
      13496               0.300000E-02
      13497               0.300000E-02
      13498               0.300000E-02
      13499               0.300000E-02
      13500               0.300000E-02
      13501               0.300000E-02
      13502               0.300000E-02
      13503               0.300000E-02
      13504               0.300000E-02
      13505               0.300000E-02
      13506               0.300000E-02
      13507               0.300000E-02
      13508               0.300000E-02
      13509               0.300000E-02
      13510               0.300000E-02
      13511               0.300000E-02
      13512               0.300000E-02
      13513               0.300000E-02
      13514               0.300000E-02
      13515               0.300000E-02
      13516               0.300000E-02
      13517               0.300000E-02
      13518               0.300000E-02
      13519               0.300000E-02
      13520               0.300000E-02
      13521               0.300000E-02
      13522               0.300000E-02
      13523               0.300000E-02
      13524               0.300000E-02
      13525               0.300000E-02
      13526               0.300000E-02
      13527               0.300000E-02
      13528               0.300000E-02
      13529               0.300000E-02
      13530               0.300000E-02
      13531               0.300000E-02
      13532               0.300000E-02
      13533               0.300000E-02
      13534               0.300000E-02
      13535               0.300000E-02
      13536               0.300000E-02
      13537               0.300000E-02
      13538               0.300000E-02
      13539               0.300000E-02
      13540               0.300000E-02
      13541               0.300000E-02
      13542               0.300000E-02
      13543               0.300000E-02
      13544               0.300000E-02
      13545               0.300000E-02
      13546               0.300000E-02
      13547               0.300000E-02
      13548               0.300000E-02
      13549               0.300000E-02
      13550               0.300000E-02
      13551               0.300000E-02
      13552               0.300000E-02
      13553               0.300000E-02
      13554               0.300000E-02
      13555               0.300000E-02
      13556               0.300000E-02
      13557               0.300000E-02
      13558               0.300000E-02
      13559               0.300000E-02
      13560               0.300000E-02
      13561               0.300000E-02
      13562               0.300000E-02
      13563               0.300000E-02
      13564               0.300000E-02
      13565               0.300000E-02
      13566               0.300000E-02
      13567               0.300000E-02
      13568               0.300000E-02
      13569               0.300000E-02
      13570               0.300000E-02
      13571               0.300000E-02
      13572               0.300000E-02
      13573               0.300000E-02
      13574               0.300000E-02
      13575               0.300000E-02
      13576               0.300000E-02
      13577               0.300000E-02
      13578               0.300000E-02
      13579               0.300000E-02
      13580               0.300000E-02
      13581               0.300000E-02
      13582               0.300000E-02
      13583               0.300000E-02
      13584               0.300000E-02
      13585               0.300000E-02
      13586               0.300000E-02
      13587               0.300000E-02
      13588               0.300000E-02
      13589               0.300000E-02
      13590               0.300000E-02
      13591               0.300000E-02
      13592               0.300000E-02
      13593               0.300000E-02
      13594               0.300000E-02
      13595               0.300000E-02
      13596               0.300000E-02
      13597               0.300000E-02
      13598               0.300000E-02
      13599               0.300000E-02
      13600               0.300000E-02
      13601               0.300000E-02
      13602               0.300000E-02
      13603               0.300000E-02
      13604               0.300000E-02
      13605               0.300000E-02
      13606               0.300000E-02
      13607               0.300000E-02
      13608               0.300000E-02
      13609               0.300000E-02
      13610               0.300000E-02
      13611               0.300000E-02
      13612               0.300000E-02
      13613               0.300000E-02
      13614               0.300000E-02
      13615               0.300000E-02
      13616               0.300000E-02
      13617               0.300000E-02
      13618               0.300000E-02
      13619               0.300000E-02
      13620               0.300000E-02
      13621               0.300000E-02
      13622               0.300000E-02
      13623               0.300000E-02
      13624               0.300000E-02
      13625               0.300000E-02
      13626               0.300000E-02
      13627               0.300000E-02
      13628               0.300000E-02
      13629               0.300000E-02
      13630               0.300000E-02
      13631               0.300000E-02
      13632               0.300000E-02
      13633               0.300000E-02
      13634               0.300000E-02
      13635               0.300000E-02
      13636               0.300000E-02
      13637               0.300000E-02
      13638               0.300000E-02
      13639               0.300000E-02
      13640               0.300000E-02
      13641               0.300000E-02
      13642               0.300000E-02
      13643               0.300000E-02
      13644               0.300000E-02
      13645               0.300000E-02
      13646               0.300000E-02
      13647               0.300000E-02
      13648               0.300000E-02
      13649               0.300000E-02
      13650               0.300000E-02
      13651               0.300000E-02
      13652               0.300000E-02
      13653               0.300000E-02
      13654               0.300000E-02
      13655               0.300000E-02
      13656               0.300000E-02
      13657               0.300000E-02
      13658               0.300000E-02
      13659               0.300000E-02
      13660               0.300000E-02
      13661               0.300000E-02
      13662               0.300000E-02
      13663               0.300000E-02
      13664               0.300000E-02
      13665               0.300000E-02
      13666               0.300000E-02
      13667               0.300000E-02
      13668               0.300000E-02
      13669               0.300000E-02
      13670               0.300000E-02
      13671               0.300000E-02
      13672               0.300000E-02
      13673               0.300000E-02
      13674               0.300000E-02
      13675               0.300000E-02
      13676               0.300000E-02
      13677               0.300000E-02
      13678               0.300000E-02
      13679               0.300000E-02
      13680               0.300000E-02
      13681               0.300000E-02
      13682               0.300000E-02
      13683               0.300000E-02
      13684               0.300000E-02
      13685               0.300000E-02
      13686               0.300000E-02
      13687               0.300000E-02
      13688               0.300000E-02
      13689               0.300000E-02
      13690               0.300000E-02
      13691               0.300000E-02
      13692               0.300000E-02
      13693               0.300000E-02
      13694               0.300000E-02
      13695               0.300000E-02
      13696               0.300000E-02
      13697               0.300000E-02
      13698               0.300000E-02
      13699               0.300000E-02
      13700               0.300000E-02
      13701               0.300000E-02
      13702               0.300000E-02
      13703               0.300000E-02
      13704               0.300000E-02
      13705               0.300000E-02
      13706               0.300000E-02
      13707               0.300000E-02
      13708               0.300000E-02
      13709               0.300000E-02
      13710               0.300000E-02
      13711               0.300000E-02
      13712               0.300000E-02
      13713               0.300000E-02
      13714               0.300000E-02
      13715               0.300000E-02
      13716               0.300000E-02
      13717               0.300000E-02
      13718               0.300000E-02
      13719               0.300000E-02
      13720               0.300000E-02
      13721               0.300000E-02
      13722               0.300000E-02
      13723               0.300000E-02
      13724               0.300000E-02
      13725               0.300000E-02
      13726               0.300000E-02
      13727               0.300000E-02
      13728               0.300000E-02
      13729               0.300000E-02
      13730               0.300000E-02
      13731               0.300000E-02
      13732               0.300000E-02
      13733               0.300000E-02
      13734               0.300000E-02
      13735               0.300000E-02
      13736               0.300000E-02
      13737               0.300000E-02
      13738               0.300000E-02
      13739               0.300000E-02
      13740               0.300000E-02
      13741               0.300000E-02
      13742               0.300000E-02
      13743               0.300000E-02
      13744               0.300000E-02
      13745               0.300000E-02
      13746               0.300000E-02
      13747               0.300000E-02
      13748               0.300000E-02
      13749               0.300000E-02
      13750               0.300000E-02
      13751               0.300000E-02
      13752               0.300000E-02
      13753               0.300000E-02
      13754               0.300000E-02
      13755               0.300000E-02
      13756               0.300000E-02
      13757               0.300000E-02
      13758               0.300000E-02
      13759               0.300000E-02
      13760               0.300000E-02
      13761               0.149573E-01
      13762               0.254602E-01
      13763               0.300000E-02
      13764               0.470858E-01
      13765               0.300000E-02
      13766               0.300000E-02
      13767               0.300000E-02
      13768               0.300000E-02
      13769               0.300000E-02
      13770               0.300000E-02
      13771               0.300000E-02
      13772               0.300000E-02
      13773               0.300000E-02
      13774               0.300000E-02
      13775               0.300000E-02
      13776               0.300000E-02
      13777               0.300000E-02
      13778               0.300000E-02
      13779               0.300000E-02
      13780               0.300000E-02
      13781               0.300000E-02
      13782               0.300000E-02
      13783               0.300000E-02
      13784               0.300000E-02
      13785               0.300000E-02
      13786               0.300000E-02
      13787               0.300000E-02
      13788               0.300000E-02
      13789               0.300000E-02
      13790               0.300000E-02
      13791               0.300000E-02
      13792               0.300000E-02
      13793               0.300000E-02
      13794               0.300000E-02
      13795               0.300000E-02
      13796               0.300000E-02
      13797               0.300000E-02
      13798               0.300000E-02
      13799               0.300000E-02
      13800               0.300000E-02
      13801               0.300000E-02
      13802               0.300000E-02
      13803               0.300000E-02
      13804               0.300000E-02
      13805               0.300000E-02
      13806               0.300000E-02
      13807               0.300000E-02
      13808               0.300000E-02
      13809               0.300000E-02
      13810               0.300000E-02
      13811               0.300000E-02
      13812               0.300000E-02
      13813               0.300000E-02
      13814               0.300000E-02
      13815               0.300000E-02
      13816               0.300000E-02
      13817               0.300000E-02
      13818               0.300000E-02
      13819               0.300000E-02
      13820               0.300000E-02
      13821               0.300000E-02
      13822               0.300000E-02
      13823               0.300000E-02
      13824               0.300000E-02
      13825               0.300000E-02
      13826               0.300000E-02
      13827               0.300000E-02
      13828               0.300000E-02
      13829               0.300000E-02
      13830               0.300000E-02
      13831               0.300000E-02
      13832               0.300000E-02
      13833               0.300000E-02
      13834               0.300000E-02
      13835               0.300000E-02
      13836               0.300000E-02
      13837               0.300000E-02
      13838               0.300000E-02
      13839               0.300000E-02
      13840               0.300000E-02
      13841               0.300000E-02
      13842               0.300000E-02
      13843               0.300000E-02
      13844               0.300000E-02
      13845               0.300000E-02
      13846               0.300000E-02
      13847               0.300000E-02
      13848               0.300000E-02
      13849               0.300000E-02
      13850               0.300000E-02
      13851               0.300000E-02
      13852               0.300000E-02
      13853               0.300000E-02
      13854               0.300000E-02
      13855               0.300000E-02
      13856               0.300000E-02
      13857               0.300000E-02
      13858               0.300000E-02
      13859               0.300000E-02
      13860               0.300000E-02
      13861               0.300000E-02
      13862               0.300000E-02
      13863               0.300000E-02
      13864               0.300000E-02
      13865               0.300000E-02
      13866               0.300000E-02
      13867               0.300000E-02
      13868               0.300000E-02
      13869               0.300000E-02
      13870               0.300000E-02
      13871               0.300000E-02
      13872               0.300000E-02
      13873               0.300000E-02
      13874               0.158270E-01
      13875               0.119751E-01
      13876               0.300000E-02
      13877               0.300000E-02
      13878               0.300000E-02
      13879               0.300000E-02
      13880               0.300000E-02
      13881               0.300000E-02
      13882               0.300000E-02
      13883               0.300000E-02
      13884               0.300000E-02
      13885               0.300000E-02
      13886               0.300000E-02
      13887               0.300000E-02
      13888               0.300000E-02
      13889               0.300000E-02
      13890               0.300000E-02
      13891               0.300000E-02
      13892               0.300000E-02
      13893               0.128447E-01
      13894               0.300000E-02
      13895               0.300000E-02
      13896               0.428705E-01
      13897               0.342246E-01
      13898               0.300000E-02
      13899               0.300000E-02
      13900               0.300000E-02
      13901               0.300000E-02
      13902               0.300000E-02
      13903               0.300000E-02
      13904               0.300000E-02
      13905               0.300000E-02
      13906               0.300000E-02
      13907               0.300000E-02
      13908               0.300000E-02
      13909               0.300000E-02
      13910               0.300000E-02
      13911               0.394503E-02
      13912               0.300000E-02
      13913               0.300000E-02
      13914               0.300000E-02
      13915               0.300000E-02
      13916               0.300000E-02
      13917               0.300000E-02
      13918               0.300000E-02
      13919               0.300000E-02
      13920               0.300000E-02
      13921               0.300000E-02
      13922               0.300000E-02
      13923               0.300000E-02
      13924               0.300000E-02
      13925               0.300000E-02
      13926               0.300000E-02
      13927               0.300000E-02
      13928               0.300000E-02
      13929               0.300000E-02
      13930               0.300000E-02
      13931               0.300000E-02
      13932               0.300000E-02
      13933               0.300000E-02
      13934               0.300000E-02
      13935               0.300000E-02
      13936               0.300000E-02
      13937               0.300000E-02
      13938               0.300000E-02
      13939               0.300000E-02
      13940               0.300000E-02
      13941               0.300000E-02
      13942               0.300000E-02
      13943               0.300000E-02
      13944               0.300000E-02
      13945               0.300000E-02
      13946               0.300000E-02
      13947               0.300000E-02
      13948               0.300000E-02
      13949               0.300000E-02
      13950               0.300000E-02
      13951               0.300000E-02
      13952               0.300000E-02
      13953               0.300000E-02
      13954               0.300000E-02
      13955               0.300000E-02
      13956               0.300000E-02
      13957               0.300000E-02
      13958               0.300000E-02
      13959               0.300000E-02
      13960               0.300000E-02
      13961               0.300000E-02
      13962               0.300000E-02
      13963               0.300000E-02
      13964               0.300000E-02
      13965               0.300000E-02
      13966               0.300000E-02
      13967               0.300000E-02
      13968               0.300000E-02
      13969               0.300000E-02
      13970               0.300000E-02
      13971               0.300000E-02
      13972               0.300000E-02
      13973               0.300000E-02
      13974               0.300000E-02
      13975               0.300000E-02
      13976               0.300000E-02
      13977               0.300000E-02
      13978               0.300000E-02
      13979               0.300000E-02
      13980               0.300000E-02
      13981               0.300000E-02
      13982               0.300000E-02
      13983               0.300000E-02
      13984               0.300000E-02
      13985               0.300000E-02
      13986               0.300000E-02
      13987               0.300000E-02
      13988               0.300000E-02
      13989               0.300000E-02
      13990               0.300000E-02
      13991               0.300000E-02
      13992               0.300000E-02
      13993               0.300000E-02
      13994               0.300000E-02
      13995               0.300000E-02
      13996               0.300000E-02
      13997               0.300000E-02
      13998               0.300000E-02
      13999               0.300000E-02
      14000               0.300000E-02
      14001               0.300000E-02
      14002               0.300000E-02
      14003               0.300000E-02
      14004               0.300000E-02
      14005               0.300000E-02
      14006               0.300000E-02
      14007               0.300000E-02
      14008               0.300000E-02
      14009               0.300000E-02
      14010               0.300000E-02
      14011               0.300000E-02
      14012               0.300000E-02
      14013               0.300000E-02
      14014               0.300000E-02
      14015               0.300000E-02
      14016               0.300000E-02
      14017               0.300000E-02
      14018               0.300000E-02
      14019               0.300000E-02
      14020               0.300000E-02
      14021               0.300000E-02
      14022               0.300000E-02
      14023               0.300000E-02
      14024               0.300000E-02
      14025               0.300000E-02
      14026               0.300000E-02
      14027               0.300000E-02
      14028               0.300000E-02
      14029               0.300000E-02
      14030               0.300000E-02
      14031               0.300000E-02
      14032               0.300000E-02
      14033               0.300000E-02
      14034               0.300000E-02
      14035               0.300000E-02
      14036               0.300000E-02
      14037               0.300000E-02
      14038               0.300000E-02
      14039               0.300000E-02
      14040               0.300000E-02
      14041               0.300000E-02
      14042               0.300000E-02
      14043               0.300000E-02
      14044               0.300000E-02
      14045               0.300000E-02
      14046               0.300000E-02
      14047               0.300000E-02
      14048               0.300000E-02
      14049               0.300000E-02
      14050               0.300000E-02
      14051               0.300000E-02
      14052               0.300000E-02
      14053               0.300000E-02
      14054               0.300000E-02
      14055               0.300000E-02
      14056               0.300000E-02
      14057               0.300000E-02
      14058               0.300000E-02
      14059               0.300000E-02
      14060               0.300000E-02
      14061               0.300000E-02
      14062               0.300000E-02
      14063               0.300000E-02
      14064               0.300000E-02
      14065               0.300000E-02
      14066               0.300000E-02
      14067               0.300000E-02
      14068               0.300000E-02
      14069               0.300000E-02
      14070               0.300000E-02
      14071               0.300000E-02
      14072               0.300000E-02
      14073               0.300000E-02
      14074               0.300000E-02
      14075               0.300000E-02
      14076               0.300000E-02
      14077               0.300000E-02
      14078               0.300000E-02
      14079               0.300000E-02
      14080               0.300000E-02
      14081               0.300000E-02
      14082               0.300000E-02
      14083               0.300000E-02
      14084               0.300000E-02
      14085               0.300000E-02
      14086               0.300000E-02
      14087               0.300000E-02
      14088               0.300000E-02
      14089               0.300000E-02
      14090               0.300000E-02
      14091               0.300000E-02
      14092               0.300000E-02
      14093               0.300000E-02
      14094               0.300000E-02
      14095               0.300000E-02
      14096               0.300000E-02
      14097               0.300000E-02
      14098               0.300000E-02
      14099               0.300000E-02
      14100               0.300000E-02
      14101               0.300000E-02
      14102               0.300000E-02
      14103               0.300000E-02
      14104               0.300000E-02
      14105               0.300000E-02
      14106               0.300000E-02
      14107               0.300000E-02
      14108               0.300000E-02
      14109               0.300000E-02
      14110               0.300000E-02
      14111               0.300000E-02
      14112               0.300000E-02
      14113               0.300000E-02
      14114               0.300000E-02
      14115               0.300000E-02
      14116               0.300000E-02
      14117               0.300000E-02
      14118               0.300000E-02
      14119               0.300000E-02
      14120               0.300000E-02
      14121               0.300000E-02
      14122               0.300000E-02
      14123               0.300000E-02
      14124               0.300000E-02
      14125               0.300000E-02
      14126               0.300000E-02
      14127               0.300000E-02
      14128               0.300000E-02
      14129               0.300000E-02
      14130               0.300000E-02
      14131               0.300000E-02
      14132               0.300000E-02
      14133               0.300000E-02
      14134               0.300000E-02
      14135               0.300000E-02
      14136               0.300000E-02
      14137               0.300000E-02
      14138               0.300000E-02
      14139               0.300000E-02
      14140               0.300000E-02
      14141               0.300000E-02
      14142               0.300000E-02
      14143               0.300000E-02
      14144               0.300000E-02
      14145               0.300000E-02
      14146               0.300000E-02
      14147               0.300000E-02
      14148               0.300000E-02
      14149               0.300000E-02
      14150               0.300000E-02
      14151               0.300000E-02
      14152               0.300000E-02
      14153               0.300000E-02
      14154               0.300000E-02
      14155               0.300000E-02
      14156               0.300000E-02
      14157               0.300000E-02
      14158               0.300000E-02
      14159               0.300000E-02
      14160               0.300000E-02
      14161               0.300000E-02
      14162               0.300000E-02
      14163               0.300000E-02
      14164               0.300000E-02
      14165               0.300000E-02
      14166               0.300000E-02
      14167               0.300000E-02
      14168               0.300000E-02
      14169               0.300000E-02
      14170               0.300000E-02
      14171               0.300000E-02
      14172               0.300000E-02
      14173               0.300000E-02
      14174               0.300000E-02
      14175               0.300000E-02
      14176               0.300000E-02
      14177               0.300000E-02
      14178               0.300000E-02
      14179               0.300000E-02
      14180               0.300000E-02
      14181               0.300000E-02
      14182               0.300000E-02
      14183               0.300000E-02
      14184               0.300000E-02
      14185               0.300000E-02
      14186               0.300000E-02
      14187               0.300000E-02
      14188               0.300000E-02
      14189               0.300000E-02
      14190               0.300000E-02
      14191               0.300000E-02
      14192               0.300000E-02
      14193               0.300000E-02
      14194               0.300000E-02
      14195               0.300000E-02
      14196               0.300000E-02
      14197               0.300000E-02
      14198               0.300000E-02
      14199               0.300000E-02
      14200               0.300000E-02
      14201               0.300000E-02
      14202               0.300000E-02
      14203               0.300000E-02
      14204               0.300000E-02
      14205               0.300000E-02
      14206               0.300000E-02
      14207               0.300000E-02
      14208               0.300000E-02
      14209               0.300000E-02
      14210               0.300000E-02
      14211               0.300000E-02
      14212               0.300000E-02
      14213               0.300000E-02
      14214               0.300000E-02
      14215               0.300000E-02
      14216               0.300000E-02
      14217               0.300000E-02
      14218               0.300000E-02
      14219               0.300000E-02
      14220               0.300000E-02
      14221               0.300000E-02
      14222               0.300000E-02
      14223               0.300000E-02
      14224               0.300000E-02
      14225               0.300000E-02
      14226               0.300000E-02
      14227               0.300000E-02
      14228               0.300000E-02
      14229               0.300000E-02
      14230               0.300000E-02
      14231               0.300000E-02
      14232               0.300000E-02
      14233               0.300000E-02
      14234               0.300000E-02
      14235               0.300000E-02
      14236               0.300000E-02
      14237               0.300000E-02
      14238               0.300000E-02
      14239               0.300000E-02
      14240               0.300000E-02
      14241               0.300000E-02
      14242               0.300000E-02
      14243               0.300000E-02
      14244               0.300000E-02
      14245               0.300000E-02
      14246               0.300000E-02
      14247               0.300000E-02
      14248               0.300000E-02
      14249               0.300000E-02
      14250               0.300000E-02
      14251               0.300000E-02
      14252               0.300000E-02
      14253               0.300000E-02
      14254               0.300000E-02
      14255               0.300000E-02
      14256               0.300000E-02
      14257               0.300000E-02
      14258               0.300000E-02
      14259               0.300000E-02
      14260               0.300000E-02
      14261               0.300000E-02
      14262               0.300000E-02
      14263               0.300000E-02
      14264               0.300000E-02
      14265               0.300000E-02
      14266               0.300000E-02
      14267               0.300000E-02
      14268               0.300000E-02
      14269               0.300000E-02
      14270               0.300000E-02
      14271               0.300000E-02
      14272               0.300000E-02
      14273               0.300000E-02
      14274               0.300000E-02
      14275               0.300000E-02
      14276               0.300000E-02
      14277               0.300000E-02
      14278               0.300000E-02
      14279               0.300000E-02
      14280               0.300000E-02
      14281               0.300000E-02
      14282               0.300000E-02
      14283               0.300000E-02
      14284               0.300000E-02
      14285               0.300000E-02
      14286               0.300000E-02
      14287               0.300000E-02
      14288               0.300000E-02
      14289               0.300000E-02
      14290               0.300000E-02
      14291               0.300000E-02
      14292               0.300000E-02
      14293               0.300000E-02
      14294               0.300000E-02
      14295               0.300000E-02
      14296               0.300000E-02
      14297               0.300000E-02
      14298               0.300000E-02
      14299               0.300000E-02
      14300               0.300000E-02
      14301               0.300000E-02
      14302               0.300000E-02
      14303               0.300000E-02
      14304               0.300000E-02
      14305               0.300000E-02
      14306               0.300000E-02
      14307               0.300000E-02
      14308               0.300000E-02
      14309               0.300000E-02
      14310               0.300000E-02
      14311               0.300000E-02
      14312               0.300000E-02
      14313               0.300000E-02
      14314               0.300000E-02
      14315               0.300000E-02
      14316               0.300000E-02
      14317               0.300000E-02
      14318               0.300000E-02
      14319               0.300000E-02
      14320               0.300000E-02
      14321               0.300000E-02
      14322               0.300000E-02
      14323               0.300000E-02
      14324               0.300000E-02
      14325               0.300000E-02
      14326               0.300000E-02
      14327               0.300000E-02
      14328               0.300000E-02
      14329               0.300000E-02
      14330               0.300000E-02
      14331               0.300000E-02
      14332               0.300000E-02
      14333               0.300000E-02
      14334               0.300000E-02
      14335               0.300000E-02
      14336               0.300000E-02
      14337               0.300000E-02
      14338               0.300000E-02
      14339               0.300000E-02
      14340               0.300000E-02
      14341               0.300000E-02
      14342               0.300000E-02
      14343               0.300000E-02
      14344               0.300000E-02
      14345               0.300000E-02
      14346               0.300000E-02
      14347               0.300000E-02
      14348               0.300000E-02
      14349               0.300000E-02
      14350               0.300000E-02
      14351               0.300000E-02
      14352               0.300000E-02
      14353               0.300000E-02
      14354               0.300000E-02
      14355               0.300000E-02
      14356               0.300000E-02
      14357               0.300000E-02
      14358               0.300000E-02
      14359               0.300000E-02
      14360               0.300000E-02
      14361               0.300000E-02
      14362               0.300000E-02
      14363               0.300000E-02
      14364               0.300000E-02
      14365               0.300000E-02
      14366               0.300000E-02
      14367               0.300000E-02
      14368               0.300000E-02
      14369               0.300000E-02
      14370               0.300000E-02
      14371               0.300000E-02
      14372               0.300000E-02
      14373               0.300000E-02
      14374               0.300000E-02
      14375               0.300000E-02
      14376               0.300000E-02
      14377               0.300000E-02
      14378               0.300000E-02
      14379               0.300000E-02
      14380               0.300000E-02
      14381               0.300000E-02
      14382               0.300000E-02
      14383               0.300000E-02
      14384               0.300000E-02
      14385               0.300000E-02
      14386               0.300000E-02
      14387               0.300000E-02
      14388               0.300000E-02
      14389               0.300000E-02
      14390               0.300000E-02
      14391               0.300000E-02
      14392               0.300000E-02
      14393               0.300000E-02
      14394               0.300000E-02
      14395               0.300000E-02
      14396               0.300000E-02
      14397               0.300000E-02
      14398               0.300000E-02
      14399               0.300000E-02
      14400               0.300000E-02
      14401               0.300000E-02
      14402               0.300000E-02
      14403               0.300000E-02
      14404               0.300000E-02
      14405               0.300000E-02
      14406               0.300000E-02
      14407               0.300000E-02
      14408               0.300000E-02
      14409               0.300000E-02
      14410               0.300000E-02
      14411               0.300000E-02
      14412               0.300000E-02
      14413               0.300000E-02
      14414               0.300000E-02
      14415               0.300000E-02
      14416               0.300000E-02
      14417               0.300000E-02
      14418               0.300000E-02
      14419               0.300000E-02
      14420               0.300000E-02
      14421               0.300000E-02
      14422               0.300000E-02
      14423               0.300000E-02
      14424               0.300000E-02
      14425               0.300000E-02
      14426               0.300000E-02
      14427               0.300000E-02
      14428               0.300000E-02
      14429               0.300000E-02
      14430               0.300000E-02
      14431               0.300000E-02
      14432               0.300000E-02
      14433               0.300000E-02
      14434               0.300000E-02
      14435               0.300000E-02
      14436               0.300000E-02
      14437               0.300000E-02
      14438               0.300000E-02
      14439               0.300000E-02
      14440               0.300000E-02
      14441               0.300000E-02
      14442               0.300000E-02
      14443               0.300000E-02
      14444               0.300000E-02
      14445               0.300000E-02
      14446               0.300000E-02
      14447               0.300000E-02
      14448               0.300000E-02
      14449               0.300000E-02
      14450               0.300000E-02
      14451               0.300000E-02
      14452               0.300000E-02
      14453               0.300000E-02
      14454               0.300000E-02
      14455               0.300000E-02
      14456               0.300000E-02
      14457               0.300000E-02
      14458               0.300000E-02
      14459               0.300000E-02
      14460               0.300000E-02
      14461               0.300000E-02
      14462               0.300000E-02
      14463               0.300000E-02
      14464               0.300000E-02
      14465               0.300000E-02
      14466               0.300000E-02
      14467               0.300000E-02
      14468               0.300000E-02
      14469               0.300000E-02
      14470               0.300000E-02
      14471               0.300000E-02
      14472               0.300000E-02
      14473               0.300000E-02
      14474               0.300000E-02
      14475               0.300000E-02
      14476               0.300000E-02
      14477               0.300000E-02
      14478               0.300000E-02
      14479               0.300000E-02
      14480               0.300000E-02
      14481               0.300000E-02
      14482               0.300000E-02
      14483               0.300000E-02
      14484               0.300000E-02
      14485               0.300000E-02
      14486               0.300000E-02
      14487               0.300000E-02
      14488               0.300000E-02
      14489               0.300000E-02
      14490               0.300000E-02
      14491               0.300000E-02
      14492               0.300000E-02
      14493               0.300000E-02
      14494               0.300000E-02
      14495               0.300000E-02
      14496               0.300000E-02
      14497               0.300000E-02
      14498               0.300000E-02
      14499               0.300000E-02
      14500               0.300000E-02
      14501               0.300000E-02
      14502               0.300000E-02
      14503               0.300000E-02
      14504               0.300000E-02
      14505               0.300000E-02
      14506               0.300000E-02
      14507               0.300000E-02
      14508               0.300000E-02
      14509               0.300000E-02
      14510               0.300000E-02
      14511               0.300000E-02
      14512               0.300000E-02
      14513               0.300000E-02
      14514               0.300000E-02
      14515               0.300000E-02
      14516               0.300000E-02
      14517               0.300000E-02
      14518               0.300000E-02
      14519               0.300000E-02
      14520               0.300000E-02
      14521               0.300000E-02
      14522               0.300000E-02
      14523               0.300000E-02
      14524               0.300000E-02
      14525               0.300000E-02
      14526               0.300000E-02
      14527               0.300000E-02
      14528               0.300000E-02
      14529               0.300000E-02
      14530               0.300000E-02
      14531               0.300000E-02
      14532               0.300000E-02
      14533               0.300000E-02
      14534               0.300000E-02
      14535               0.300000E-02
      14536               0.300000E-02
      14537               0.300000E-02
      14538               0.300000E-02
      14539               0.300000E-02
      14540               0.300000E-02
      14541               0.300000E-02
      14542               0.300000E-02
      14543               0.300000E-02
      14544               0.300000E-02
      14545               0.300000E-02
      14546               0.300000E-02
      14547               0.300000E-02
      14548               0.300000E-02
      14549               0.300000E-02
      14550               0.300000E-02
      14551               0.300000E-02
      14552               0.300000E-02
      14553               0.300000E-02
      14554               0.300000E-02
      14555               0.300000E-02
      14556               0.300000E-02
      14557               0.300000E-02
      14558               0.300000E-02
      14559               0.300000E-02
      14560               0.300000E-02
      14561               0.300000E-02
      14562               0.300000E-02
      14563               0.300000E-02
      14564               0.300000E-02
      14565               0.300000E-02
      14566               0.300000E-02
      14567               0.300000E-02
      14568               0.300000E-02
      14569               0.300000E-02
      14570               0.300000E-02
      14571               0.300000E-02
      14572               0.300000E-02
      14573               0.300000E-02
      14574               0.300000E-02
      14575               0.300000E-02
      14576               0.300000E-02
      14577               0.300000E-02
      14578               0.300000E-02
      14579               0.300000E-02
      14580               0.300000E-02
      14581               0.300000E-02
      14582               0.300000E-02
      14583               0.300000E-02
      14584               0.300000E-02
      14585               0.300000E-02
      14586               0.300000E-02
      14587               0.300000E-02
      14588               0.300000E-02
      14589               0.300000E-02
      14590               0.300000E-02
      14591               0.300000E-02
      14592               0.300000E-02
      14593               0.300000E-02
      14594               0.300000E-02
      14595               0.300000E-02
      14596               0.300000E-02
      14597               0.300000E-02
      14598               0.300000E-02
      14599               0.300000E-02
      14600               0.300000E-02
      14601               0.300000E-02
      14602               0.300000E-02
      14603               0.300000E-02
      14604               0.300000E-02
      14605               0.300000E-02
      14606               0.300000E-02
      14607               0.300000E-02
      14608               0.300000E-02
      14609               0.300000E-02
      14610               0.300000E-02
      14611               0.300000E-02
      14612               0.300000E-02
      14613               0.300000E-02
      14614               0.881219E-02
      14615               0.300000E-02
      14616               0.300000E-02
      14617               0.649067E-02
      14618               0.300000E-02
      14619               0.259455E-01
      14620               0.300000E-02
      14621               0.300000E-02
      14622               0.300000E-02
      14623               0.300000E-02
      14624               0.300000E-02
      14625               0.300000E-02
      14626               0.300000E-02
      14627               0.300000E-02
      14628               0.300000E-02
      14629               0.300000E-02
      14630               0.300000E-02
      14631               0.300000E-02
      14632               0.300000E-02
      14633               0.300000E-02
      14634               0.300000E-02
      14635               0.300000E-02
      14636               0.300000E-02
      14637               0.300000E-02
      14638               0.300000E-02
      14639               0.300000E-02
      14640               0.300000E-02
      14641               0.300000E-02
      14642               0.300000E-02
      14643               0.300000E-02
      14644               0.300000E-02
      14645               0.300000E-02
      14646               0.300000E-02
      14647               0.300000E-02
      14648               0.300000E-02
      14649               0.300000E-02
      14650               0.300000E-02
      14651               0.300000E-02
      14652               0.300000E-02
      14653               0.300000E-02
      14654               0.300000E-02
      14655               0.300000E-02
      14656               0.300000E-02
      14657               0.300000E-02
      14658               0.300000E-02
      14659               0.300000E-02
      14660               0.300000E-02
      14661               0.300000E-02
      14662               0.300000E-02
      14663               0.300000E-02
      14664               0.300000E-02
      14665               0.300000E-02
      14666               0.300000E-02
      14667               0.300000E-02
      14668               0.300000E-02
      14669               0.300000E-02
      14670               0.300000E-02
      14671               0.300000E-02
      14672               0.300000E-02
      14673               0.300000E-02
      14674               0.300000E-02
      14675               0.300000E-02
      14676               0.300000E-02
      14677               0.300000E-02
      14678               0.300000E-02
      14679               0.300000E-02
      14680               0.300000E-02
      14681               0.300000E-02
      14682               0.300000E-02
      14683               0.300000E-02
      14684               0.300000E-02
      14685               0.300000E-02
      14686               0.300000E-02
      14687               0.300000E-02
      14688               0.300000E-02
      14689               0.300000E-02
      14690               0.300000E-02
      14691               0.300000E-02
      14692               0.300000E-02
      14693               0.300000E-02
      14694               0.300000E-02
      14695               0.300000E-02
      14696               0.300000E-02
      14697               0.300000E-02
      14698               0.300000E-02
      14699               0.300000E-02
      14700               0.300000E-02
      14701               0.300000E-02
      14702               0.300000E-02
      14703               0.300000E-02
      14704               0.300000E-02
      14705               0.300000E-02
      14706               0.300000E-02
      14707               0.300000E-02
      14708               0.300000E-02
      14709               0.300000E-02
      14710               0.300000E-02
      14711               0.300000E-02
      14712               0.300000E-02
      14713               0.300000E-02
      14714               0.300000E-02
      14715               0.300000E-02
      14716               0.300000E-02
      14717               0.300000E-02
      14718               0.300000E-02
      14719               0.159585E-01
      14720               0.139886E-01
      14721               0.300000E-02
      14722               0.300000E-02
      14723               0.300000E-02
      14724               0.300000E-02
      14725               0.300000E-02
      14726               0.300000E-02
      14727               0.300000E-02
      14728               0.300000E-02
      14729               0.300000E-02
      14730               0.300000E-02
      14731               0.300000E-02
      14732               0.300000E-02
      14733               0.300000E-02
      14734               0.300000E-02
      14735               0.300000E-02
      14736               0.300000E-02
      14737               0.300000E-02
      14738               0.300000E-02
      14739               0.300000E-02
      14740               0.300000E-02
      14741               0.300000E-02
      14742               0.300000E-02
      14743               0.300000E-02
      14744               0.300000E-02
      14745               0.300000E-02
      14746               0.300000E-02
      14747               0.300000E-02
      14748               0.300000E-02
      14749               0.300000E-02
      14750               0.300000E-02
      14751               0.300000E-02
      14752               0.300000E-02
      14753               0.300000E-02
      14754               0.300000E-02
      14755               0.300000E-02
      14756               0.300000E-02
      14757               0.300000E-02
      14758               0.300000E-02
      14759               0.300000E-02
      14760               0.300000E-02
      14761               0.300000E-02
      14762               0.300000E-02
      14763               0.300000E-02
      14764               0.300000E-02
      14765               0.300000E-02
      14766               0.300000E-02
      14767               0.300000E-02
      14768               0.300000E-02
      14769               0.300000E-02
      14770               0.300000E-02
      14771               0.300000E-02
      14772               0.300000E-02
      14773               0.300000E-02
      14774               0.300000E-02
      14775               0.300000E-02
      14776               0.300000E-02
      14777               0.300000E-02
      14778               0.300000E-02
      14779               0.300000E-02
      14780               0.300000E-02
      14781               0.300000E-02
      14782               0.300000E-02
      14783               0.300000E-02
      14784               0.300000E-02
      14785               0.300000E-02
      14786               0.300000E-02
      14787               0.300000E-02
      14788               0.300000E-02
      14789               0.300000E-02
      14790               0.300000E-02
      14791               0.300000E-02
      14792               0.300000E-02
      14793               0.300000E-02
      14794               0.300000E-02
      14795               0.300000E-02
      14796               0.300000E-02
      14797               0.300000E-02
      14798               0.300000E-02
      14799               0.300000E-02
      14800               0.300000E-02
      14801               0.300000E-02
      14802               0.300000E-02
      14803               0.300000E-02
      14804               0.300000E-02
      14805               0.300000E-02
      14806               0.300000E-02
      14807               0.300000E-02
      14808               0.300000E-02
      14809               0.300000E-02
      14810               0.300000E-02
      14811               0.300000E-02
      14812               0.300000E-02
      14813               0.300000E-02
      14814               0.300000E-02
      14815               0.300000E-02
      14816               0.300000E-02
      14817               0.300000E-02
      14818               0.300000E-02
      14819               0.300000E-02
      14820               0.300000E-02
      14821               0.300000E-02
      14822               0.300000E-02
      14823               0.300000E-02
      14824               0.300000E-02
      14825               0.300000E-02
      14826               0.300000E-02
      14827               0.300000E-02
      14828               0.300000E-02
      14829               0.300000E-02
      14830               0.300000E-02
      14831               0.300000E-02
      14832               0.394684E-02
      14833               0.300000E-02
      14834               0.300000E-02
      14835               0.300000E-02
      14836               0.300000E-02
      14837               0.300000E-02
      14838               0.300000E-02
      14839               0.300000E-02
      14840               0.300000E-02
      14841               0.300000E-02
      14842               0.300000E-02
      14843               0.300000E-02
      14844               0.300000E-02
      14845               0.300000E-02
      14846               0.300000E-02
      14847               0.300000E-02
      14848               0.300000E-02
      14849               0.300000E-02
      14850               0.300000E-02
      14851               0.300000E-02
      14852               0.300000E-02
      14853               0.300000E-02
      14854               0.300000E-02
      14855               0.300000E-02
      14856               0.300000E-02
      14857               0.300000E-02
      14858               0.300000E-02
      14859               0.300000E-02
      14860               0.300000E-02
      14861               0.300000E-02
      14862               0.300000E-02
      14863               0.300000E-02
      14864               0.300000E-02
      14865               0.300000E-02
      14866               0.300000E-02
      14867               0.300000E-02
      14868               0.300000E-02
      14869               0.300000E-02
      14870               0.300000E-02
      14871               0.300000E-02
      14872               0.300000E-02
      14873               0.300000E-02
      14874               0.300000E-02
      14875               0.300000E-02
      14876               0.300000E-02
      14877               0.300000E-02
      14878               0.300000E-02
      14879               0.300000E-02
      14880               0.300000E-02
      14881               0.300000E-02
      14882               0.300000E-02
      14883               0.300000E-02
      14884               0.300000E-02
      14885               0.300000E-02
      14886               0.300000E-02
      14887               0.300000E-02
      14888               0.300000E-02
      14889               0.300000E-02
      14890               0.300000E-02
      14891               0.300000E-02
      14892               0.300000E-02
      14893               0.300000E-02
      14894               0.300000E-02
      14895               0.300000E-02
      14896               0.300000E-02
      14897               0.300000E-02
      14898               0.300000E-02
      14899               0.300000E-02
      14900               0.300000E-02
      14901               0.300000E-02
      14902               0.300000E-02
      14903               0.300000E-02
      14904               0.300000E-02
      14905               0.300000E-02
      14906               0.300000E-02
      14907               0.300000E-02
      14908               0.300000E-02
      14909               0.300000E-02
      14910               0.300000E-02
      14911               0.300000E-02
      14912               0.300000E-02
      14913               0.300000E-02
      14914               0.300000E-02
      14915               0.300000E-02
      14916               0.300000E-02
      14917               0.300000E-02
      14918               0.300000E-02
      14919               0.300000E-02
      14920               0.300000E-02
      14921               0.300000E-02
      14922               0.300000E-02
      14923               0.300000E-02
      14924               0.300000E-02
      14925               0.300000E-02
      14926               0.300000E-02
      14927               0.300000E-02
      14928               0.300000E-02
      14929               0.300000E-02
      14930               0.300000E-02
      14931               0.300000E-02
      14932               0.300000E-02
      14933               0.300000E-02
      14934               0.300000E-02
      14935               0.300000E-02
      14936               0.300000E-02
      14937               0.300000E-02
      14938               0.300000E-02
      14939               0.300000E-02
      14940               0.300000E-02
      14941               0.300000E-02
      14942               0.300000E-02
      14943               0.300000E-02
      14944               0.300000E-02
      14945               0.300000E-02
      14946               0.300000E-02
      14947               0.300000E-02
      14948               0.300000E-02
      14949               0.300000E-02
      14950               0.300000E-02
      14951               0.300000E-02
      14952               0.300000E-02
      14953               0.300000E-02
      14954               0.300000E-02
      14955               0.300000E-02
      14956               0.300000E-02
      14957               0.300000E-02
      14958               0.300000E-02
      14959               0.300000E-02
      14960               0.300000E-02
      14961               0.300000E-02
      14962               0.300000E-02
      14963               0.300000E-02
      14964               0.300000E-02
      14965               0.300000E-02
      14966               0.300000E-02
      14967               0.300000E-02
      14968               0.300000E-02
      14969               0.300000E-02
      14970               0.300000E-02
      14971               0.300000E-02
      14972               0.300000E-02
      14973               0.300000E-02
      14974               0.300000E-02
      14975               0.300000E-02
      14976               0.300000E-02
      14977               0.300000E-02
      14978               0.300000E-02
      14979               0.300000E-02
      14980               0.300000E-02
      14981               0.300000E-02
      14982               0.300000E-02
      14983               0.300000E-02
      14984               0.300000E-02
      14985               0.300000E-02
      14986               0.300000E-02
      14987               0.300000E-02
      14988               0.300000E-02
      14989               0.300000E-02
      14990               0.300000E-02
      14991               0.300000E-02
      14992               0.300000E-02
      14993               0.300000E-02
      14994               0.300000E-02
      14995               0.300000E-02
      14996               0.300000E-02
      14997               0.300000E-02
      14998               0.300000E-02
      14999               0.300000E-02
      15000               0.300000E-02
      15001               0.300000E-02
      15002               0.300000E-02
      15003               0.300000E-02
      15004               0.300000E-02
      15005               0.300000E-02
      15006               0.300000E-02
      15007               0.300000E-02
      15008               0.300000E-02
      15009               0.300000E-02
      15010               0.300000E-02
      15011               0.300000E-02
      15012               0.300000E-02
      15013               0.300000E-02
      15014               0.300000E-02
      15015               0.300000E-02
      15016               0.300000E-02
      15017               0.300000E-02
      15018               0.300000E-02
      15019               0.300000E-02
      15020               0.300000E-02
      15021               0.300000E-02
      15022               0.300000E-02
      15023               0.300000E-02
      15024               0.300000E-02
      15025               0.300000E-02
      15026               0.300000E-02
      15027               0.300000E-02
      15028               0.300000E-02
      15029               0.300000E-02
      15030               0.300000E-02
      15031               0.300000E-02
      15032               0.300000E-02
      15033               0.300000E-02
      15034               0.300000E-02
      15035               0.300000E-02
      15036               0.300000E-02
      15037               0.300000E-02
      15038               0.300000E-02
      15039               0.300000E-02
      15040               0.300000E-02
      15041               0.300000E-02
      15042               0.300000E-02
      15043               0.300000E-02
      15044               0.300000E-02
      15045               0.300000E-02
      15046               0.300000E-02
      15047               0.300000E-02
      15048               0.300000E-02
      15049               0.300000E-02
      15050               0.300000E-02
      15051               0.300000E-02
      15052               0.300000E-02
      15053               0.300000E-02
      15054               0.300000E-02
      15055               0.300000E-02
      15056               0.300000E-02
      15057               0.300000E-02
      15058               0.300000E-02
      15059               0.300000E-02
      15060               0.300000E-02
      15061               0.300000E-02
      15062               0.300000E-02
      15063               0.300000E-02
      15064               0.300000E-02
      15065               0.300000E-02
      15066               0.300000E-02
      15067               0.300000E-02
      15068               0.300000E-02
      15069               0.300000E-02
      15070               0.300000E-02
      15071               0.300000E-02
      15072               0.300000E-02
      15073               0.300000E-02
      15074               0.300000E-02
      15075               0.300000E-02
      15076               0.300000E-02
      15077               0.300000E-02
      15078               0.300000E-02
      15079               0.300000E-02
      15080               0.300000E-02
      15081               0.300000E-02
      15082               0.300000E-02
      15083               0.300000E-02
      15084               0.300000E-02
      15085               0.300000E-02
      15086               0.300000E-02
      15087               0.300000E-02
      15088               0.300000E-02
      15089               0.300000E-02
      15090               0.300000E-02
      15091               0.300000E-02
      15092               0.300000E-02
      15093               0.300000E-02
      15094               0.300000E-02
      15095               0.300000E-02
      15096               0.300000E-02
      15097               0.300000E-02
      15098               0.300000E-02
      15099               0.300000E-02
      15100               0.300000E-02
      15101               0.300000E-02
      15102               0.300000E-02
      15103               0.300000E-02
      15104               0.300000E-02
      15105               0.300000E-02
      15106               0.300000E-02
      15107               0.300000E-02
      15108               0.300000E-02
      15109               0.300000E-02
      15110               0.300000E-02
      15111               0.300000E-02
      15112               0.300000E-02
      15113               0.300000E-02
      15114               0.300000E-02
      15115               0.300000E-02
      15116               0.300000E-02
      15117               0.300000E-02
      15118               0.300000E-02
      15119               0.300000E-02
      15120               0.300000E-02
      15121               0.300000E-02
      15122               0.300000E-02
      15123               0.300000E-02
      15124               0.300000E-02
      15125               0.300000E-02
      15126               0.300000E-02
      15127               0.300000E-02
      15128               0.300000E-02
      15129               0.300000E-02
      15130               0.300000E-02
      15131               0.300000E-02
      15132               0.300000E-02
      15133               0.300000E-02
      15134               0.300000E-02
      15135               0.300000E-02
      15136               0.300000E-02
      15137               0.300000E-02
      15138               0.300000E-02
      15139               0.300000E-02
      15140               0.300000E-02
      15141               0.300000E-02
      15142               0.300000E-02
      15143               0.300000E-02
      15144               0.300000E-02
      15145               0.300000E-02
      15146               0.300000E-02
      15147               0.300000E-02
      15148               0.300000E-02
      15149               0.300000E-02
      15150               0.300000E-02
      15151               0.300000E-02
      15152               0.300000E-02
      15153               0.300000E-02
      15154               0.300000E-02
      15155               0.300000E-02
      15156               0.300000E-02
      15157               0.300000E-02
      15158               0.300000E-02
      15159               0.300000E-02
      15160               0.300000E-02
      15161               0.300000E-02
      15162               0.300000E-02
      15163               0.300000E-02
      15164               0.300000E-02
      15165               0.300000E-02
      15166               0.300000E-02
      15167               0.300000E-02
      15168               0.300000E-02
      15169               0.300000E-02
      15170               0.300000E-02
      15171               0.300000E-02
      15172               0.300000E-02
      15173               0.300000E-02
      15174               0.300000E-02
      15175               0.300000E-02
      15176               0.300000E-02
      15177               0.300000E-02
      15178               0.300000E-02
      15179               0.300000E-02
      15180               0.300000E-02
      15181               0.300000E-02
      15182               0.300000E-02
      15183               0.300000E-02
      15184               0.300000E-02
      15185               0.300000E-02
      15186               0.300000E-02
      15187               0.300000E-02
      15188               0.300000E-02
      15189               0.300000E-02
      15190               0.300000E-02
      15191               0.300000E-02
      15192               0.300000E-02
      15193               0.300000E-02
      15194               0.300000E-02
      15195               0.300000E-02
      15196               0.300000E-02
      15197               0.300000E-02
      15198               0.300000E-02
      15199               0.300000E-02
      15200               0.300000E-02
      15201               0.300000E-02
      15202               0.300000E-02
      15203               0.300000E-02
      15204               0.300000E-02
      15205               0.300000E-02
      15206               0.300000E-02
      15207               0.300000E-02
      15208               0.300000E-02
      15209               0.300000E-02
      15210               0.300000E-02
      15211               0.300000E-02
      15212               0.300000E-02
      15213               0.300000E-02
      15214               0.300000E-02
      15215               0.300000E-02
      15216               0.300000E-02
      15217               0.300000E-02
      15218               0.300000E-02
      15219               0.300000E-02
      15220               0.300000E-02
      15221               0.300000E-02
      15222               0.300000E-02
      15223               0.300000E-02
      15224               0.300000E-02
      15225               0.300000E-02
      15226               0.300000E-02
      15227               0.300000E-02
      15228               0.300000E-02
      15229               0.300000E-02
      15230               0.300000E-02
      15231               0.300000E-02
      15232               0.300000E-02
      15233               0.300000E-02
      15234               0.300000E-02
      15235               0.300000E-02
      15236               0.300000E-02
      15237               0.300000E-02
      15238               0.300000E-02
      15239               0.300000E-02
      15240               0.300000E-02
      15241               0.300000E-02
      15242               0.300000E-02
      15243               0.300000E-02
      15244               0.300000E-02
      15245               0.300000E-02
      15246               0.300000E-02
      15247               0.300000E-02
      15248               0.300000E-02
      15249               0.300000E-02
      15250               0.300000E-02
      15251               0.300000E-02
      15252               0.300000E-02
      15253               0.300000E-02
      15254               0.300000E-02
      15255               0.300000E-02
      15256               0.300000E-02
      15257               0.300000E-02
      15258               0.300000E-02
      15259               0.300000E-02
      15260               0.300000E-02
      15261               0.300000E-02
      15262               0.300000E-02
      15263               0.795982E-02
      15264               0.677499E-02
      15265               0.300000E-02
      15266               0.300000E-02
      15267               0.300000E-02
      15268               0.300000E-02
      15269               0.300000E-02
      15270               0.193506E-01
      15271               0.152454E-01
      15272               0.300000E-02
      15273               0.300000E-02
      15274               0.300000E-02
      15275               0.300000E-02
      15276               0.300000E-02
      15277               0.300000E-02
      15278               0.300000E-02
      15279               0.300000E-02
      15280               0.300000E-02
      15281               0.300000E-02
      15282               0.300000E-02
      15283               0.300000E-02
      15284               0.300000E-02
      15285               0.300000E-02
      15286               0.300000E-02
      15287               0.300000E-02
      15288               0.300000E-02
      15289               0.300000E-02
      15290               0.300000E-02
      15291               0.300000E-02
      15292               0.300000E-02
      15293               0.300000E-02
      15294               0.300000E-02
      15295               0.300000E-02
      15296               0.300000E-02
      15297               0.300000E-02
      15298               0.300000E-02
      15299               0.300000E-02
      15300               0.300000E-02
      15301               0.300000E-02
      15302               0.300000E-02
      15303               0.300000E-02
      15304               0.300000E-02
      15305               0.300000E-02
      15306               0.300000E-02
      15307               0.300000E-02
      15308               0.300000E-02
      15309               0.300000E-02
      15310               0.300000E-02
      15311               0.300000E-02
      15312               0.300000E-02
      15313               0.300000E-02
      15314               0.300000E-02
      15315               0.300000E-02
      15316               0.300000E-02
      15317               0.300000E-02
      15318               0.300000E-02
      15319               0.300000E-02
      15320               0.300000E-02
      15321               0.300000E-02
      15322               0.300000E-02
      15323               0.300000E-02
      15324               0.300000E-02
      15325               0.300000E-02
      15326               0.300000E-02
      15327               0.300000E-02
      15328               0.300000E-02
      15329               0.300000E-02
      15330               0.300000E-02
      15331               0.300000E-02
      15332               0.300000E-02
      15333               0.300000E-02
      15334               0.300000E-02
      15335               0.300000E-02
      15336               0.300000E-02
      15337               0.300000E-02
      15338               0.300000E-02
      15339               0.300000E-02
      15340               0.300000E-02
      15341               0.300000E-02
      15342               0.300000E-02
      15343               0.300000E-02
      15344               0.300000E-02
      15345               0.300000E-02
      15346               0.300000E-02
      15347               0.300000E-02
      15348               0.300000E-02
      15349               0.300000E-02
      15350               0.300000E-02
      15351               0.300000E-02
      15352               0.300000E-02
      15353               0.300000E-02
      15354               0.300000E-02
      15355               0.300000E-02
      15356               0.300000E-02
      15357               0.300000E-02
      15358               0.300000E-02
      15359               0.300000E-02
      15360               0.300000E-02
      15361               0.300000E-02
      15362               0.300000E-02
      15363               0.300000E-02
      15364               0.300000E-02
      15365               0.300000E-02
      15366               0.300000E-02
      15367               0.300000E-02
      15368               0.300000E-02
      15369               0.300000E-02
      15370               0.300000E-02
      15371               0.300000E-02
      15372               0.300000E-02
      15373               0.300000E-02
      15374               0.300000E-02
      15375               0.300000E-02
      15376               0.300000E-02
      15377               0.300000E-02
      15378               0.300000E-02
      15379               0.300000E-02
      15380               0.300000E-02
      15381               0.300000E-02
      15382               0.300000E-02
      15383               0.300000E-02
      15384               0.300000E-02
      15385               0.300000E-02
      15386               0.300000E-02
      15387               0.300000E-02
      15388               0.300000E-02
      15389               0.300000E-02
      15390               0.300000E-02
      15391               0.300000E-02
      15392               0.300000E-02
      15393               0.300000E-02
      15394               0.300000E-02
      15395               0.300000E-02
      15396               0.300000E-02
      15397               0.300000E-02
      15398               0.300000E-02
      15399               0.300000E-02
      15400               0.300000E-02
      15401               0.300000E-02
      15402               0.300000E-02
      15403               0.300000E-02
      15404               0.300000E-02
      15405               0.300000E-02
      15406               0.300000E-02
      15407               0.300000E-02
      15408               0.300000E-02
      15409               0.300000E-02
      15410               0.300000E-02
      15411               0.300000E-02
      15412               0.300000E-02
      15413               0.300000E-02
      15414               0.300000E-02
      15415               0.300000E-02
      15416               0.300000E-02
      15417               0.300000E-02
      15418               0.300000E-02
      15419               0.300000E-02
      15420               0.300000E-02
      15421               0.300000E-02
      15422               0.300000E-02
      15423               0.300000E-02
      15424               0.300000E-02
      15425               0.300000E-02
      15426               0.300000E-02
      15427               0.300000E-02
      15428               0.300000E-02
      15429               0.300000E-02
      15430               0.300000E-02
      15431               0.300000E-02
      15432               0.300000E-02
      15433               0.300000E-02
      15434               0.300000E-02
      15435               0.776013E-02
      15436               0.300000E-02
      15437               0.300000E-02
      15438               0.300000E-02
      15439               0.300000E-02
      15440               0.300000E-02
      15441               0.300000E-02
      15442               0.300000E-02
      15443               0.300000E-02
      15444               0.300000E-02
      15445               0.300000E-02
      15446               0.300000E-02
      15447               0.300000E-02
      15448               0.300000E-02
      15449               0.300000E-02
      15450               0.300000E-02
      15451               0.300000E-02
      15452               0.300000E-02
      15453               0.180018E-01
      15454               0.732743E-01
      15455               0.969069E-02
      15456               0.300000E-02
      15457               0.701153E-01
      15458               0.300000E-02
      15459               0.300000E-02
      15460               0.300000E-02
      15461               0.300000E-02
      15462               0.300000E-02
      15463               0.166099E-01
      15464               0.521792E-01
      15465               0.300000E-02
      15466               0.374095E-01
      15467               0.300000E-02
      15468               0.300000E-02
      15469               0.300000E-02
      15470               0.300000E-02
      15471               0.300000E-02
      15472               0.300000E-02
      15473               0.300000E-02
      15474               0.300000E-02
      15475               0.300000E-02
      15476               0.300000E-02
      15477               0.300000E-02
      15478               0.300000E-02
      15479               0.300000E-02
      15480               0.300000E-02
      15481               0.300000E-02
      15482               0.300000E-02
      15483               0.300000E-02
      15484               0.300000E-02
      15485               0.300000E-02
      15486               0.300000E-02
      15487               0.300000E-02
      15488               0.300000E-02
      15489               0.300000E-02
      15490               0.300000E-02
      15491               0.300000E-02
      15492               0.300000E-02
      15493               0.300000E-02
      15494               0.300000E-02
      15495               0.300000E-02
      15496               0.300000E-02
      15497               0.300000E-02
      15498               0.300000E-02
      15499               0.300000E-02
      15500               0.300000E-02
      15501               0.300000E-02
      15502               0.300000E-02
      15503               0.300000E-02
      15504               0.300000E-02
      15505               0.300000E-02
      15506               0.300000E-02
      15507               0.300000E-02
      15508               0.300000E-02
      15509               0.300000E-02
      15510               0.300000E-02
      15511               0.300000E-02
      15512               0.300000E-02
      15513               0.300000E-02
      15514               0.300000E-02
      15515               0.300000E-02
      15516               0.300000E-02
      15517               0.300000E-02
      15518               0.300000E-02
      15519               0.300000E-02
      15520               0.300000E-02
      15521               0.300000E-02
      15522               0.300000E-02
      15523               0.300000E-02
      15524               0.300000E-02
      15525               0.300000E-02
      15526               0.300000E-02
      15527               0.300000E-02
      15528               0.300000E-02
      15529               0.300000E-02
      15530               0.300000E-02
      15531               0.300000E-02
      15532               0.300000E-02
      15533               0.300000E-02
      15534               0.300000E-02
      15535               0.300000E-02
      15536               0.300000E-02
      15537               0.300000E-02
      15538               0.300000E-02
      15539               0.300000E-02
      15540               0.300000E-02
      15541               0.300000E-02
      15542               0.300000E-02
      15543               0.300000E-02
      15544               0.300000E-02
      15545               0.300000E-02
      15546               0.300000E-02
      15547               0.300000E-02
      15548               0.300000E-02
      15549               0.300000E-02
      15550               0.300000E-02
      15551               0.300000E-02
      15552               0.300000E-02
      15553               0.300000E-02
      15554               0.300000E-02
      15555               0.300000E-02
      15556               0.300000E-02
      15557               0.300000E-02
      15558               0.300000E-02
      15559               0.300000E-02
      15560               0.300000E-02
      15561               0.300000E-02
      15562               0.300000E-02
      15563               0.300000E-02
      15564               0.300000E-02
      15565               0.300000E-02
      15566               0.300000E-02
      15567               0.300000E-02
      15568               0.300000E-02
      15569               0.300000E-02
      15570               0.300000E-02
      15571               0.604366E-01
      15572               0.300000E-02
      15573               0.300000E-02
      15574               0.300000E-02
      15575               0.927544E-01
      15576               0.762215E-01
      15577               0.300000E-02
      15578               0.300000E-02
      15579               0.300000E-02
      15580               0.300000E-02
      15581               0.300000E-02
      15582               0.300000E-02
      15583               0.300000E-02
      15584               0.300000E-02
      15585               0.300000E-02
      15586               0.300000E-02
      15587               0.300000E-02
      15588               0.300000E-02
      15589               0.300000E-02
      15590               0.300000E-02
      15591               0.300000E-02
      15592               0.300000E-02
      15593               0.300000E-02
      15594               0.300000E-02
      15595               0.300000E-02
      15596               0.300000E-02
      15597               0.300000E-02
      15598               0.300000E-02
      15599               0.300000E-02
      15600               0.300000E-02
      15601               0.300000E-02
      15602               0.300000E-02
      15603               0.300000E-02
      15604               0.300000E-02
      15605               0.300000E-02
      15606               0.300000E-02
      15607               0.300000E-02
      15608               0.300000E-02
      15609               0.300000E-02
      15610               0.300000E-02
      15611               0.300000E-02
      15612               0.300000E-02
      15613               0.300000E-02
      15614               0.300000E-02
      15615               0.300000E-02
      15616               0.300000E-02
      15617               0.300000E-02
      15618               0.300000E-02
      15619               0.300000E-02
      15620               0.300000E-02
      15621               0.300000E-02
      15622               0.300000E-02
      15623               0.300000E-02
      15624               0.300000E-02
      15625               0.300000E-02
      15626               0.300000E-02
      15627               0.300000E-02
      15628               0.300000E-02
      15629               0.300000E-02
      15630               0.300000E-02
      15631               0.300000E-02
      15632               0.300000E-02
      15633               0.300000E-02
      15634               0.300000E-02
      15635               0.300000E-02
      15636               0.300000E-02
      15637               0.300000E-02
      15638               0.300000E-02
      15639               0.300000E-02
      15640               0.300000E-02
      15641               0.300000E-02
      15642               0.300000E-02
      15643               0.300000E-02
      15644               0.300000E-02
      15645               0.300000E-02
      15646               0.300000E-02
      15647               0.300000E-02
      15648               0.300000E-02
      15649               0.300000E-02
      15650               0.300000E-02
      15651               0.300000E-02
      15652               0.300000E-02
      15653               0.300000E-02
      15654               0.300000E-02
      15655               0.300000E-02
      15656               0.300000E-02
      15657               0.300000E-02
      15658               0.300000E-02
      15659               0.300000E-02
      15660               0.300000E-02
      15661               0.300000E-02
      15662               0.300000E-02
      15663               0.300000E-02
      15664               0.300000E-02
      15665               0.300000E-02
      15666               0.300000E-02
      15667               0.300000E-02
      15668               0.300000E-02
      15669               0.300000E-02
      15670               0.300000E-02
      15671               0.300000E-02
      15672               0.300000E-02
      15673               0.300000E-02
      15674               0.300000E-02
      15675               0.300000E-02
      15676               0.300000E-02
      15677               0.300000E-02
      15678               0.300000E-02
      15679               0.300000E-02
      15680               0.300000E-02
      15681               0.300000E-02
      15682               0.300000E-02
      15683               0.300000E-02
      15684               0.300000E-02
      15685               0.300000E-02
      15686               0.300000E-02
      15687               0.300000E-02
      15688               0.300000E-02
      15689               0.300000E-02
      15690               0.300000E-02
      15691               0.300000E-02
      15692               0.300000E-02
      15693               0.300000E-02
      15694               0.300000E-02
      15695               0.300000E-02
      15696               0.300000E-02
      15697               0.300000E-02
      15698               0.300000E-02
      15699               0.300000E-02
      15700               0.300000E-02
      15701               0.300000E-02
      15702               0.300000E-02
      15703               0.300000E-02
      15704               0.300000E-02
      15705               0.300000E-02
      15706               0.300000E-02
      15707               0.300000E-02
      15708               0.300000E-02
      15709               0.300000E-02
      15710               0.300000E-02
      15711               0.300000E-02
      15712               0.300000E-02
      15713               0.300000E-02
      15714               0.300000E-02
      15715               0.300000E-02
      15716               0.300000E-02
      15717               0.300000E-02
      15718               0.300000E-02
      15719               0.300000E-02
      15720               0.300000E-02
      15721               0.300000E-02
      15722               0.300000E-02
      15723               0.300000E-02
      15724               0.300000E-02
      15725               0.300000E-02
      15726               0.300000E-02
      15727               0.300000E-02
      15728               0.300000E-02
      15729               0.300000E-02
      15730               0.300000E-02
      15731               0.300000E-02
      15732               0.300000E-02
      15733               0.300000E-02
      15734               0.300000E-02
      15735               0.300000E-02
      15736               0.300000E-02
      15737               0.300000E-02
      15738               0.300000E-02
      15739               0.300000E-02
      15740               0.300000E-02
      15741               0.300000E-02
      15742               0.300000E-02
      15743               0.300000E-02
      15744               0.300000E-02
      15745               0.300000E-02
      15746               0.300000E-02
      15747               0.300000E-02
      15748               0.300000E-02
      15749               0.300000E-02
      15750               0.300000E-02
      15751               0.300000E-02
      15752               0.300000E-02
      15753               0.300000E-02
      15754               0.300000E-02
      15755               0.300000E-02
      15756               0.300000E-02
      15757               0.300000E-02
      15758               0.300000E-02
      15759               0.300000E-02
      15760               0.300000E-02
      15761               0.300000E-02
      15762               0.300000E-02
      15763               0.300000E-02
      15764               0.300000E-02
      15765               0.300000E-02
      15766               0.300000E-02
      15767               0.300000E-02
      15768               0.300000E-02
      15769               0.300000E-02
      15770               0.300000E-02
      15771               0.300000E-02
      15772               0.300000E-02
      15773               0.300000E-02
      15774               0.300000E-02
      15775               0.300000E-02
      15776               0.300000E-02
      15777               0.315433E-01
      15778               0.572499E-01
      15779               0.300000E-02
      15780               0.341263E-01
      15781               0.300000E-02
      15782               0.300000E-02
      15783               0.300000E-02
      15784               0.300000E-02
      15785               0.300000E-02
      15786               0.300000E-02
      15787               0.300000E-02
      15788               0.300000E-02
      15789               0.300000E-02
      15790               0.300000E-02
      15791               0.300000E-02
      15792               0.300000E-02
      15793               0.300000E-02
      15794               0.300000E-02
      15795               0.300000E-02
      15796               0.300000E-02
      15797               0.300000E-02
      15798               0.300000E-02
      15799               0.300000E-02
      15800               0.300000E-02
      15801               0.300000E-02
      15802               0.300000E-02
      15803               0.300000E-02
      15804               0.300000E-02
      15805               0.300000E-02
      15806               0.300000E-02
      15807               0.300000E-02
      15808               0.300000E-02
      15809               0.300000E-02
      15810               0.300000E-02
      15811               0.300000E-02
      15812               0.300000E-02
      15813               0.300000E-02
      15814               0.300000E-02
      15815               0.300000E-02
      15816               0.300000E-02
      15817               0.300000E-02
      15818               0.300000E-02
      15819               0.300000E-02
      15820               0.300000E-02
      15821               0.300000E-02
      15822               0.300000E-02
      15823               0.300000E-02
      15824               0.300000E-02
      15825               0.300000E-02
      15826               0.300000E-02
      15827               0.300000E-02
      15828               0.300000E-02
      15829               0.300000E-02
      15830               0.300000E-02
      15831               0.300000E-02
      15832               0.300000E-02
      15833               0.300000E-02
      15834               0.300000E-02
      15835               0.300000E-02
      15836               0.300000E-02
      15837               0.300000E-02
      15838               0.300000E-02
      15839               0.300000E-02
      15840               0.300000E-02
      15841               0.858799E-02
      15842               0.300000E-02
      15843               0.300000E-02
      15844               0.300000E-02
      15845               0.300000E-02
      15846               0.300000E-02
      15847               0.300000E-02
      15848               0.300000E-02
      15849               0.300000E-02
      15850               0.300000E-02
      15851               0.300000E-02
      15852               0.300000E-02
      15853               0.300000E-02
      15854               0.300000E-02
      15855               0.300000E-02
      15856               0.300000E-02
      15857               0.300000E-02
      15858               0.300000E-02
      15859               0.300000E-02
      15860               0.300000E-02
      15861               0.300000E-02
      15862               0.300000E-02
      15863               0.300000E-02
      15864               0.300000E-02
      15865               0.300000E-02
      15866               0.300000E-02
      15867               0.300000E-02
      15868               0.300000E-02
      15869               0.300000E-02
      15870               0.300000E-02
      15871               0.300000E-02
      15872               0.300000E-02
      15873               0.300000E-02
      15874               0.300000E-02
      15875               0.300000E-02
      15876               0.300000E-02
      15877               0.300000E-02
      15878               0.300000E-02
      15879               0.300000E-02
      15880               0.300000E-02
      15881               0.300000E-02
      15882               0.300000E-02
      15883               0.300000E-02
      15884               0.300000E-02
      15885               0.300000E-02
      15886               0.300000E-02
      15887               0.300000E-02
      15888               0.300000E-02
      15889               0.300000E-02
      15890               0.300000E-02
      15891               0.300000E-02
      15892               0.300000E-02
      15893               0.300000E-02
      15894               0.300000E-02
      15895               0.300000E-02
      15896               0.300000E-02
      15897               0.300000E-02
      15898               0.300000E-02
      15899               0.300000E-02
      15900               0.300000E-02
      15901               0.300000E-02
      15902               0.300000E-02
      15903               0.300000E-02
      15904               0.300000E-02
      15905               0.300000E-02
      15906               0.300000E-02
      15907               0.300000E-02
      15908               0.300000E-02
      15909               0.300000E-02
      15910               0.300000E-02
      15911               0.300000E-02
      15912               0.300000E-02
      15913               0.300000E-02
      15914               0.300000E-02
      15915               0.300000E-02
      15916               0.300000E-02
      15917               0.158463E-01
      15918               0.225345E-01
      15919               0.327102E-01
      15920               0.119790E-01
      15921               0.676018E-01
      15922               0.300000E-02
      15923               0.300000E-02
      15924               0.300000E-02
      15925               0.300000E-02
      15926               0.300000E-02
      15927               0.300000E-02
      15928               0.300000E-02
      15929               0.300000E-02
      15930               0.300000E-02
      15931               0.300000E-02
      15932               0.300000E-02
      15933               0.300000E-02
      15934               0.300000E-02
      15935               0.300000E-02
      15936               0.300000E-02
      15937               0.300000E-02
      15938               0.300000E-02
      15939               0.300000E-02
      15940               0.300000E-02
      15941               0.300000E-02
      15942               0.300000E-02
      15943               0.300000E-02
      15944               0.300000E-02
      15945               0.300000E-02
      15946               0.300000E-02
      15947               0.300000E-02
      15948               0.300000E-02
      15949               0.300000E-02
      15950               0.300000E-02
      15951               0.300000E-02
      15952               0.300000E-02
      15953               0.300000E-02
      15954               0.300000E-02
      15955               0.300000E-02
      15956               0.300000E-02
      15957               0.300000E-02
      15958               0.300000E-02
      15959               0.300000E-02
      15960               0.300000E-02
      15961               0.300000E-02
      15962               0.300000E-02
      15963               0.300000E-02
      15964               0.300000E-02
      15965               0.300000E-02
      15966               0.300000E-02
      15967               0.300000E-02
      15968               0.300000E-02
      15969               0.300000E-02
      15970               0.300000E-02
      15971               0.300000E-02
      15972               0.300000E-02
      15973               0.300000E-02
      15974               0.300000E-02
      15975               0.300000E-02
      15976               0.300000E-02
      15977               0.300000E-02
      15978               0.300000E-02
      15979               0.300000E-02
      15980               0.300000E-02
      15981               0.300000E-02
      15982               0.300000E-02
      15983               0.300000E-02
      15984               0.300000E-02
      15985               0.300000E-02
      15986               0.300000E-02
      15987               0.300000E-02
      15988               0.300000E-02
      15989               0.300000E-02
      15990               0.300000E-02
      15991               0.300000E-02
      15992               0.300000E-02
      15993               0.300000E-02
      15994               0.300000E-02
      15995               0.300000E-02
      15996               0.300000E-02
      15997               0.300000E-02
      15998               0.300000E-02
      15999               0.300000E-02
      16000               0.300000E-02
      16001               0.300000E-02
      16002               0.300000E-02
      16003               0.300000E-02
      16004               0.300000E-02
      16005               0.300000E-02
      16006               0.300000E-02
      16007               0.300000E-02
      16008               0.300000E-02
      16009               0.300000E-02
      16010               0.300000E-02
      16011               0.300000E-02
      16012               0.300000E-02
      16013               0.300000E-02
      16014               0.300000E-02
      16015               0.300000E-02
      16016               0.300000E-02
      16017               0.300000E-02
      16018               0.300000E-02
      16019               0.300000E-02
      16020               0.300000E-02
      16021               0.300000E-02
      16022               0.300000E-02
      16023               0.300000E-02
      16024               0.789547E-02
      16025               0.556187E-02
      16026               0.300000E-02
      16027               0.300000E-02
      16028               0.300000E-02
      16029               0.300000E-02
      16030               0.300000E-02
      16031               0.300000E-02
      16032               0.300000E-02
      16033               0.300000E-02
      16034               0.300000E-02
      16035               0.300000E-02
      16036               0.300000E-02
      16037               0.300000E-02
      16038               0.300000E-02
      16039               0.300000E-02
      16040               0.300000E-02
      16041               0.300000E-02
      16042               0.300000E-02
      16043               0.300000E-02
      16044               0.300000E-02
      16045               0.300000E-02
      16046               0.300000E-02
      16047               0.300000E-02
      16048               0.300000E-02
      16049               0.300000E-02
      16050               0.300000E-02
      16051               0.300000E-02
      16052               0.300000E-02
      16053               0.300000E-02
      16054               0.300000E-02
      16055               0.300000E-02
      16056               0.300000E-02
      16057               0.300000E-02
      16058               0.300000E-02
      16059               0.300000E-02
      16060               0.300000E-02
      16061               0.300000E-02
      16062               0.300000E-02
      16063               0.300000E-02
      16064               0.300000E-02
      16065               0.300000E-02
      16066               0.300000E-02
      16067               0.300000E-02
      16068               0.300000E-02
      16069               0.300000E-02
      16070               0.300000E-02
      16071               0.300000E-02
      16072               0.300000E-02
      16073               0.645223E-02
      16074               0.300000E-02
      16075               0.300000E-02
      16076               0.300000E-02
      16077               0.300000E-02
      16078               0.300000E-02
      16079               0.300000E-02
      16080               0.300000E-02
      16081               0.300000E-02
      16082               0.300000E-02
      16083               0.300000E-02
      16084               0.300000E-02
      16085               0.300000E-02
      16086               0.300000E-02
      16087               0.300000E-02
      16088               0.300000E-02
      16089               0.300000E-02
      16090               0.300000E-02
      16091               0.300000E-02
      16092               0.300000E-02
      16093               0.300000E-02
      16094               0.300000E-02
      16095               0.300000E-02
      16096               0.300000E-02
      16097               0.300000E-02
      16098               0.300000E-02
      16099               0.300000E-02
      16100               0.300000E-02
      16101               0.300000E-02
      16102               0.300000E-02
      16103               0.300000E-02
      16104               0.300000E-02
      16105               0.300000E-02
      16106               0.300000E-02
      16107               0.300000E-02
      16108               0.300000E-02
      16109               0.300000E-02
      16110               0.300000E-02
      16111               0.300000E-02
      16112               0.300000E-02
      16113               0.300000E-02
      16114               0.300000E-02
      16115               0.300000E-02
      16116               0.300000E-02
      16117               0.300000E-02
      16118               0.300000E-02
      16119               0.300000E-02
      16120               0.300000E-02
      16121               0.300000E-02
      16122               0.300000E-02
      16123               0.300000E-02
      16124               0.300000E-02
      16125               0.300000E-02
      16126               0.300000E-02
      16127               0.300000E-02
      16128               0.300000E-02
      16129               0.300000E-02
      16130               0.300000E-02
      16131               0.300000E-02
      16132               0.300000E-02
      16133               0.300000E-02
      16134               0.300000E-02
      16135               0.300000E-02
      16136               0.300000E-02
      16137               0.300000E-02
      16138               0.300000E-02
      16139               0.300000E-02
      16140               0.300000E-02
      16141               0.300000E-02
      16142               0.300000E-02
      16143               0.300000E-02
      16144               0.300000E-02
      16145               0.300000E-02
      16146               0.300000E-02
      16147               0.300000E-02
      16148               0.300000E-02
      16149               0.300000E-02
      16150               0.300000E-02
      16151               0.300000E-02
      16152               0.300000E-02
      16153               0.300000E-02
      16154               0.300000E-02
      16155               0.300000E-02
      16156               0.300000E-02
      16157               0.300000E-02
      16158               0.300000E-02
      16159               0.300000E-02
      16160               0.300000E-02
      16161               0.300000E-02
      16162               0.300000E-02
      16163               0.300000E-02
      16164               0.300000E-02
      16165               0.300000E-02
      16166               0.300000E-02
      16167               0.300000E-02
      16168               0.300000E-02
      16169               0.300000E-02
      16170               0.300000E-02
      16171               0.300000E-02
      16172               0.300000E-02
      16173               0.300000E-02
      16174               0.300000E-02
      16175               0.300000E-02
      16176               0.300000E-02
      16177               0.300000E-02
      16178               0.300000E-02
      16179               0.300000E-02
      16180               0.300000E-02
      16181               0.300000E-02
      16182               0.300000E-02
      16183               0.300000E-02
      16184               0.300000E-02
      16185               0.300000E-02
      16186               0.300000E-02
      16187               0.300000E-02
      16188               0.300000E-02
      16189               0.300000E-02
      16190               0.300000E-02
      16191               0.300000E-02
      16192               0.300000E-02
      16193               0.300000E-02
      16194               0.300000E-02
      16195               0.300000E-02
      16196               0.300000E-02
      16197               0.300000E-02
      16198               0.300000E-02
      16199               0.300000E-02
      16200               0.300000E-02
      16201               0.300000E-02
      16202               0.300000E-02
      16203               0.300000E-02
      16204               0.300000E-02
      16205               0.300000E-02
      16206               0.300000E-02
      16207               0.300000E-02
      16208               0.300000E-02
      16209               0.300000E-02
      16210               0.300000E-02
      16211               0.300000E-02
      16212               0.300000E-02
      16213               0.300000E-02
      16214               0.300000E-02
      16215               0.300000E-02
      16216               0.300000E-02
      16217               0.300000E-02
      16218               0.300000E-02
      16219               0.300000E-02
      16220               0.300000E-02
      16221               0.300000E-02
      16222               0.300000E-02
      16223               0.300000E-02
      16224               0.300000E-02
      16225               0.300000E-02
      16226               0.300000E-02
      16227               0.300000E-02
      16228               0.300000E-02
      16229               0.300000E-02
      16230               0.300000E-02
      16231               0.300000E-02
      16232               0.300000E-02
      16233               0.300000E-02
      16234               0.300000E-02
      16235               0.300000E-02
      16236               0.300000E-02
      16237               0.603628E-02
      16238               0.669474E-02
      16239               0.300000E-02
      16240               0.300000E-02
      16241               0.300000E-02
      16242               0.300000E-02
      16243               0.300000E-02
      16244               0.300000E-02
      16245               0.300000E-02
      16246               0.300000E-02
      16247               0.300000E-02
      16248               0.300000E-02
      16249               0.300000E-02
      16250               0.300000E-02
      16251               0.300000E-02
      16252               0.300000E-02
      16253               0.300000E-02
      16254               0.300000E-02
      16255               0.300000E-02
      16256               0.300000E-02
      16257               0.300000E-02
      16258               0.300000E-02
      16259               0.450237E-01
      16260               0.672811E-02
      16261               0.205300E-01
      16262               0.300000E-02
      16263               0.300000E-02
      16264               0.300000E-02
      16265               0.300000E-02
      16266               0.300000E-02
      16267               0.300000E-02
      16268               0.300000E-02
      16269               0.300000E-02
      16270               0.914196E-01
      16271               0.730516E-02
      16272               0.300000E-02
      16273               0.292094E-01
      16274               0.300000E-02
      16275               0.545376E-01
      16276               0.149807E-01
      16277               0.300000E-02
      16278               0.300000E-02
      16279               0.300000E-02
      16280               0.300000E-02
      16281               0.300000E-02
      16282               0.300000E-02
      16283               0.300000E-02
      16284               0.300000E-02
      16285               0.300000E-02
      16286               0.300000E-02
      16287               0.300000E-02
      16288               0.300000E-02
      16289               0.300000E-02
      16290               0.300000E-02
      16291               0.300000E-02
      16292               0.300000E-02
      16293               0.300000E-02
      16294               0.300000E-02
      16295               0.300000E-02
      16296               0.300000E-02
      16297               0.375979E-02
      16298               0.300000E-02
      16299               0.300000E-02
      16300               0.300000E-02
      16301               0.300000E-02
      16302               0.300000E-02
      16303               0.300000E-02
      16304               0.300000E-02
      16305               0.300000E-02
      16306               0.300000E-02
      16307               0.300000E-02
      16308               0.300000E-02
      16309               0.300000E-02
      16310               0.300000E-02
      16311               0.300000E-02
      16312               0.300000E-02
      16313               0.300000E-02
      16314               0.300000E-02
      16315               0.300000E-02
      16316               0.300000E-02
      16317               0.300000E-02
      16318               0.300000E-02
      16319               0.300000E-02
      16320               0.300000E-02
      16321               0.300000E-02
      16322               0.300000E-02
      16323               0.300000E-02
      16324               0.300000E-02
      16325               0.300000E-02
      16326               0.300000E-02
      16327               0.300000E-02
      16328               0.300000E-02
      16329               0.300000E-02
      16330               0.300000E-02
      16331               0.300000E-02
      16332               0.300000E-02
      16333               0.300000E-02
      16334               0.300000E-02
      16335               0.300000E-02
      16336               0.300000E-02
      16337               0.300000E-02
      16338               0.300000E-02
      16339               0.300000E-02
      16340               0.300000E-02
      16341               0.300000E-02
      16342               0.300000E-02
      16343               0.300000E-02
      16344               0.300000E-02
      16345               0.300000E-02
      16346               0.300000E-02
      16347               0.300000E-02
      16348               0.300000E-02
      16349               0.300000E-02
      16350               0.300000E-02
      16351               0.300000E-02
      16352               0.300000E-02
      16353               0.300000E-02
      16354               0.300000E-02
      16355               0.300000E-02
      16356               0.300000E-02
      16357               0.300000E-02
      16358               0.300000E-02
      16359               0.300000E-02
      16360               0.300000E-02
      16361               0.300000E-02
      16362               0.300000E-02
      16363               0.300000E-02
      16364               0.300000E-02
      16365               0.300000E-02
      16366               0.300000E-02
      16367               0.300000E-02
      16368               0.300000E-02
      16369               0.300000E-02
      16370               0.300000E-02
      16371               0.300000E-02
      16372               0.300000E-02
      16373               0.300000E-02
      16374               0.300000E-02
      16375               0.300000E-02
      16376               0.300000E-02
      16377               0.300000E-02
      16378               0.300000E-02
      16379               0.300000E-02
      16380               0.300000E-02
      16381               0.300000E-02
      16382               0.300000E-02
      16383               0.300000E-02
      16384               0.300000E-02
      16385               0.300000E-02
      16386               0.300000E-02
      16387               0.300000E-02
      16388               0.300000E-02
      16389               0.300000E-02
      16390               0.300000E-02
      16391               0.300000E-02
      16392               0.300000E-02
      16393               0.300000E-02
      16394               0.300000E-02
      16395               0.300000E-02
      16396               0.300000E-02
      16397               0.300000E-02
      16398               0.300000E-02
      16399               0.300000E-02
      16400               0.300000E-02
      16401               0.300000E-02
      16402               0.300000E-02
      16403               0.300000E-02
      16404               0.300000E-02
      16405               0.300000E-02
      16406               0.300000E-02
      16407               0.300000E-02
      16408               0.300000E-02
      16409               0.300000E-02
      16410               0.300000E-02
      16411               0.300000E-02
      16412               0.300000E-02
      16413               0.300000E-02
      16414               0.300000E-02
      16415               0.300000E-02
      16416               0.300000E-02
      16417               0.300000E-02
      16418               0.300000E-02
      16419               0.300000E-02
      16420               0.300000E-02
      16421               0.300000E-02
      16422               0.300000E-02
      16423               0.300000E-02
      16424               0.300000E-02
      16425               0.300000E-02
      16426               0.300000E-02
      16427               0.300000E-02
      16428               0.300000E-02
      16429               0.300000E-02
      16430               0.300000E-02
      16431               0.300000E-02
      16432               0.300000E-02
      16433               0.300000E-02
      16434               0.300000E-02
      16435               0.300000E-02
      16436               0.300000E-02
      16437               0.300000E-02
      16438               0.300000E-02
      16439               0.300000E-02
      16440               0.300000E-02
      16441               0.300000E-02
      16442               0.300000E-02
      16443               0.300000E-02
      16444               0.300000E-02
      16445               0.300000E-02
      16446               0.300000E-02
      16447               0.300000E-02
      16448               0.300000E-02
      16449               0.300000E-02
      16450               0.300000E-02
      16451               0.300000E-02
      16452               0.300000E-02
      16453               0.300000E-02
      16454               0.300000E-02
      16455               0.300000E-02
      16456               0.300000E-02
      16457               0.300000E-02
      16458               0.300000E-02
      16459               0.300000E-02
      16460               0.300000E-02
      16461               0.300000E-02
      16462               0.300000E-02
      16463               0.300000E-02
      16464               0.300000E-02
      16465               0.300000E-02
      16466               0.300000E-02
      16467               0.300000E-02
      16468               0.300000E-02
      16469               0.300000E-02
      16470               0.300000E-02
      16471               0.300000E-02
      16472               0.300000E-02
      16473               0.300000E-02
      16474               0.300000E-02
      16475               0.300000E-02
      16476               0.300000E-02
      16477               0.300000E-02
      16478               0.300000E-02
      16479               0.300000E-02
      16480               0.300000E-02
      16481               0.300000E-02
      16482               0.300000E-02
      16483               0.300000E-02
      16484               0.300000E-02
      16485               0.300000E-02
      16486               0.300000E-02
      16487               0.300000E-02
      16488               0.300000E-02
      16489               0.300000E-02
      16490               0.300000E-02
      16491               0.300000E-02
      16492               0.300000E-02
      16493               0.300000E-02
      16494               0.300000E-02
      16495               0.300000E-02
      16496               0.300000E-02
      16497               0.300000E-02
      16498               0.300000E-02
      16499               0.300000E-02
      16500               0.300000E-02
      16501               0.300000E-02
      16502               0.300000E-02
      16503               0.300000E-02
      16504               0.300000E-02
      16505               0.300000E-02
      16506               0.300000E-02
      16507               0.300000E-02
      16508               0.300000E-02
      16509               0.300000E-02
      16510               0.300000E-02
      16511               0.300000E-02
      16512               0.300000E-02
      16513               0.300000E-02
      16514               0.300000E-02
      16515               0.300000E-02
      16516               0.300000E-02
      16517               0.300000E-02
      16518               0.300000E-02
      16519               0.300000E-02
      16520               0.300000E-02
      16521               0.300000E-02
      16522               0.300000E-02
      16523               0.300000E-02
      16524               0.300000E-02
      16525               0.300000E-02
      16526               0.300000E-02
      16527               0.300000E-02
      16528               0.300000E-02
      16529               0.300000E-02
      16530               0.300000E-02
      16531               0.300000E-02
      16532               0.300000E-02
      16533               0.300000E-02
      16534               0.300000E-02
      16535               0.300000E-02
      16536               0.300000E-02
      16537               0.300000E-02
      16538               0.300000E-02
      16539               0.300000E-02
      16540               0.300000E-02
      16541               0.300000E-02
      16542               0.300000E-02
      16543               0.300000E-02
      16544               0.300000E-02
      16545               0.300000E-02
      16546               0.300000E-02
      16547               0.300000E-02
      16548               0.300000E-02
      16549               0.300000E-02
      16550               0.300000E-02
      16551               0.300000E-02
      16552               0.300000E-02
      16553               0.300000E-02
      16554               0.300000E-02
      16555               0.300000E-02
      16556               0.300000E-02
      16557               0.300000E-02
      16558               0.300000E-02
      16559               0.300000E-02
      16560               0.300000E-02
      16561               0.300000E-02
      16562               0.300000E-02
      16563               0.300000E-02
      16564               0.300000E-02
      16565               0.300000E-02
      16566               0.300000E-02
      16567               0.300000E-02
      16568               0.300000E-02
      16569               0.300000E-02
      16570               0.300000E-02
      16571               0.300000E-02
      16572               0.300000E-02
      16573               0.300000E-02
      16574               0.300000E-02
      16575               0.300000E-02
      16576               0.300000E-02
      16577               0.300000E-02
      16578               0.300000E-02
      16579               0.300000E-02
      16580               0.300000E-02
      16581               0.300000E-02
      16582               0.300000E-02
      16583               0.300000E-02
      16584               0.300000E-02
      16585               0.300000E-02
      16586               0.300000E-02
      16587               0.300000E-02
      16588               0.300000E-02
      16589               0.300000E-02
      16590               0.300000E-02
      16591               0.300000E-02
      16592               0.300000E-02
      16593               0.300000E-02
      16594               0.300000E-02
      16595               0.300000E-02
      16596               0.300000E-02
      16597               0.300000E-02
      16598               0.300000E-02
      16599               0.300000E-02
      16600               0.300000E-02
      16601               0.300000E-02
      16602               0.300000E-02
      16603               0.300000E-02
      16604               0.300000E-02
      16605               0.300000E-02
      16606               0.300000E-02
      16607               0.300000E-02
      16608               0.300000E-02
      16609               0.300000E-02
      16610               0.300000E-02
      16611               0.300000E-02
      16612               0.300000E-02
      16613               0.300000E-02
      16614               0.300000E-02
      16615               0.300000E-02
      16616               0.300000E-02
      16617               0.300000E-02
      16618               0.300000E-02
      16619               0.300000E-02
      16620               0.300000E-02
      16621               0.300000E-02
      16622               0.300000E-02
      16623               0.300000E-02
      16624               0.300000E-02
      16625               0.300000E-02
      16626               0.300000E-02
      16627               0.300000E-02
      16628               0.300000E-02
      16629               0.300000E-02
      16630               0.300000E-02
      16631               0.300000E-02
      16632               0.300000E-02
      16633               0.300000E-02
      16634               0.300000E-02
      16635               0.300000E-02
      16636               0.300000E-02
      16637               0.300000E-02
      16638               0.300000E-02
      16639               0.300000E-02
      16640               0.300000E-02
      16641               0.300000E-02
      16642               0.300000E-02
      16643               0.300000E-02
      16644               0.300000E-02
      16645               0.300000E-02
      16646               0.300000E-02
      16647               0.300000E-02
      16648               0.300000E-02
      16649               0.300000E-02
      16650               0.300000E-02
      16651               0.300000E-02
      16652               0.300000E-02
      16653               0.300000E-02
      16654               0.300000E-02
      16655               0.300000E-02
      16656               0.300000E-02
      16657               0.300000E-02
      16658               0.300000E-02
      16659               0.300000E-02
      16660               0.300000E-02
      16661               0.300000E-02
      16662               0.300000E-02
      16663               0.300000E-02
      16664               0.300000E-02
      16665               0.300000E-02
      16666               0.300000E-02
      16667               0.300000E-02
      16668               0.300000E-02
      16669               0.300000E-02
      16670               0.300000E-02
      16671               0.300000E-02
      16672               0.300000E-02
      16673               0.300000E-02
      16674               0.300000E-02
      16675               0.300000E-02
      16676               0.300000E-02
      16677               0.300000E-02
      16678               0.300000E-02
      16679               0.300000E-02
      16680               0.300000E-02
      16681               0.300000E-02
      16682               0.300000E-02
      16683               0.300000E-02
      16684               0.300000E-02
      16685               0.300000E-02
      16686               0.300000E-02
      16687               0.300000E-02
      16688               0.300000E-02
      16689               0.300000E-02
      16690               0.300000E-02
      16691               0.300000E-02
      16692               0.300000E-02
      16693               0.300000E-02
      16694               0.300000E-02
      16695               0.300000E-02
      16696               0.300000E-02
      16697               0.300000E-02
      16698               0.300000E-02
      16699               0.300000E-02
      16700               0.300000E-02
      16701               0.300000E-02
      16702               0.300000E-02
      16703               0.300000E-02
      16704               0.300000E-02
      16705               0.300000E-02
      16706               0.300000E-02
      16707               0.300000E-02
      16708               0.300000E-02
      16709               0.300000E-02
      16710               0.300000E-02
      16711               0.300000E-02
      16712               0.300000E-02
      16713               0.300000E-02
      16714               0.300000E-02
      16715               0.300000E-02
      16716               0.300000E-02
      16717               0.300000E-02
      16718               0.300000E-02
      16719               0.300000E-02
      16720               0.300000E-02
      16721               0.300000E-02
      16722               0.300000E-02
      16723               0.300000E-02
      16724               0.300000E-02
      16725               0.300000E-02
      16726               0.300000E-02
      16727               0.300000E-02
      16728               0.300000E-02
      16729               0.300000E-02
      16730               0.300000E-02
      16731               0.300000E-02
      16732               0.300000E-02
      16733               0.300000E-02
      16734               0.300000E-02
      16735               0.300000E-02
      16736               0.300000E-02
      16737               0.300000E-02
      16738               0.300000E-02
      16739               0.300000E-02
      16740               0.300000E-02
      16741               0.300000E-02
      16742               0.300000E-02
      16743               0.300000E-02
      16744               0.300000E-02
      16745               0.485468E-02
      16746               0.300000E-02
      16747               0.300000E-02
      16748               0.300000E-02
      16749               0.300000E-02
      16750               0.300000E-02
      16751               0.772822E-02
      16752               0.300000E-02
      16753               0.300000E-02
      16754               0.640551E-02
      16755               0.300000E-02
      16756               0.300000E-02
      16757               0.300000E-02
      16758               0.300000E-02
      16759               0.300000E-02
      16760               0.300000E-02
      16761               0.300000E-02
      16762               0.300000E-02
      16763               0.300000E-02
      16764               0.300000E-02
      16765               0.300000E-02
      16766               0.300000E-02
      16767               0.300000E-02
      16768               0.300000E-02
      16769               0.300000E-02
      16770               0.300000E-02
      16771               0.300000E-02
      16772               0.300000E-02
      16773               0.300000E-02
      16774               0.300000E-02
      16775               0.300000E-02
      16776               0.300000E-02
      16777               0.300000E-02
      16778               0.300000E-02
      16779               0.300000E-02
      16780               0.300000E-02
      16781               0.300000E-02
      16782               0.300000E-02
      16783               0.300000E-02
      16784               0.300000E-02
      16785               0.300000E-02
      16786               0.300000E-02
      16787               0.300000E-02
      16788               0.300000E-02
      16789               0.300000E-02
      16790               0.300000E-02
      16791               0.300000E-02
      16792               0.300000E-02
      16793               0.300000E-02
      16794               0.300000E-02
      16795               0.300000E-02
      16796               0.300000E-02
      16797               0.300000E-02
      16798               0.300000E-02
      16799               0.300000E-02
      16800               0.300000E-02
      16801               0.300000E-02
      16802               0.300000E-02
      16803               0.300000E-02
      16804               0.300000E-02
      16805               0.300000E-02
      16806               0.300000E-02
      16807               0.300000E-02
      16808               0.300000E-02
      16809               0.300000E-02
      16810               0.300000E-02
      16811               0.300000E-02
      16812               0.300000E-02
      16813               0.300000E-02
      16814               0.300000E-02
      16815               0.300000E-02
      16816               0.300000E-02
      16817               0.300000E-02
      16818               0.300000E-02
      16819               0.300000E-02
      16820               0.300000E-02
      16821               0.300000E-02
      16822               0.300000E-02
      16823               0.300000E-02
      16824               0.300000E-02
      16825               0.300000E-02
      16826               0.300000E-02
      16827               0.300000E-02
      16828               0.300000E-02
      16829               0.300000E-02
      16830               0.300000E-02
      16831               0.300000E-02
      16832               0.300000E-02
      16833               0.300000E-02
      16834               0.300000E-02
      16835               0.300000E-02
      16836               0.300000E-02
      16837               0.300000E-02
      16838               0.300000E-02
      16839               0.300000E-02
      16840               0.300000E-02
      16841               0.300000E-02
      16842               0.300000E-02
      16843               0.300000E-02
      16844               0.300000E-02
      16845               0.300000E-02
      16846               0.300000E-02
      16847               0.300000E-02
      16848               0.300000E-02
      16849               0.300000E-02
      16850               0.300000E-02
      16851               0.300000E-02
      16852               0.300000E-02
      16853               0.300000E-02
      16854               0.300000E-02
      16855               0.300000E-02
      16856               0.300000E-02
      16857               0.300000E-02
      16858               0.300000E-02
      16859               0.300000E-02
      16860               0.300000E-02
      16861               0.300000E-02
      16862               0.300000E-02
      16863               0.300000E-02
      16864               0.300000E-02
      16865               0.300000E-02
      16866               0.300000E-02
      16867               0.300000E-02
      16868               0.300000E-02
      16869               0.300000E-02
      16870               0.300000E-02
      16871               0.300000E-02
      16872               0.300000E-02
      16873               0.300000E-02
      16874               0.300000E-02
      16875               0.300000E-02
      16876               0.300000E-02
      16877               0.300000E-02
      16878               0.300000E-02
      16879               0.300000E-02
      16880               0.300000E-02
      16881               0.300000E-02
      16882               0.300000E-02
      16883               0.300000E-02
      16884               0.300000E-02
      16885               0.300000E-02
      16886               0.300000E-02
      16887               0.300000E-02
      16888               0.300000E-02
      16889               0.300000E-02
      16890               0.300000E-02
      16891               0.300000E-02
      16892               0.300000E-02
      16893               0.300000E-02
      16894               0.300000E-02
      16895               0.300000E-02
      16896               0.300000E-02
      16897               0.300000E-02
      16898               0.300000E-02
      16899               0.300000E-02
      16900               0.300000E-02
      16901               0.300000E-02
      16902               0.300000E-02
      16903               0.300000E-02
      16904               0.300000E-02
      16905               0.300000E-02
      16906               0.300000E-02
      16907               0.300000E-02
      16908               0.300000E-02
      16909               0.300000E-02
      16910               0.300000E-02
      16911               0.300000E-02
      16912               0.300000E-02
      16913               0.300000E-02
      16914               0.300000E-02
      16915               0.300000E-02
      16916               0.300000E-02
      16917               0.300000E-02
      16918               0.300000E-02
      16919               0.300000E-02
      16920               0.300000E-02
      16921               0.300000E-02
      16922               0.300000E-02
      16923               0.300000E-02
      16924               0.300000E-02
      16925               0.300000E-02
      16926               0.300000E-02
      16927               0.300000E-02
      16928               0.300000E-02
      16929               0.300000E-02
      16930               0.300000E-02
      16931               0.300000E-02
      16932               0.300000E-02
      16933               0.300000E-02
      16934               0.300000E-02
      16935               0.300000E-02
      16936               0.300000E-02
      16937               0.300000E-02
      16938               0.300000E-02
      16939               0.300000E-02
      16940               0.300000E-02
      16941               0.300000E-02
      16942               0.300000E-02
      16943               0.300000E-02
      16944               0.300000E-02
      16945               0.300000E-02
      16946               0.300000E-02
      16947               0.300000E-02
      16948               0.300000E-02
      16949               0.300000E-02
      16950               0.300000E-02
      16951               0.300000E-02
      16952               0.300000E-02
      16953               0.300000E-02
      16954               0.300000E-02
      16955               0.300000E-02
      16956               0.300000E-02
      16957               0.300000E-02
      16958               0.300000E-02
      16959               0.300000E-02
      16960               0.300000E-02
      16961               0.300000E-02
      16962               0.300000E-02
      16963               0.300000E-02
      16964               0.300000E-02
      16965               0.300000E-02
      16966               0.300000E-02
      16967               0.300000E-02
      16968               0.300000E-02
      16969               0.300000E-02
      16970               0.300000E-02
      16971               0.300000E-02
      16972               0.300000E-02
      16973               0.300000E-02
      16974               0.300000E-02
      16975               0.300000E-02
      16976               0.300000E-02
      16977               0.300000E-02
      16978               0.300000E-02
      16979               0.300000E-02
      16980               0.300000E-02
      16981               0.300000E-02
      16982               0.300000E-02
      16983               0.300000E-02
      16984               0.300000E-02
      16985               0.300000E-02
      16986               0.300000E-02
      16987               0.300000E-02
      16988               0.300000E-02
      16989               0.300000E-02
      16990               0.300000E-02
      16991               0.300000E-02
      16992               0.300000E-02
      16993               0.300000E-02
      16994               0.300000E-02
      16995               0.300000E-02
      16996               0.300000E-02
      16997               0.300000E-02
      16998               0.300000E-02
      16999               0.300000E-02
      17000               0.300000E-02
      17001               0.300000E-02
      17002               0.300000E-02
      17003               0.300000E-02
      17004               0.300000E-02
      17005               0.300000E-02
      17006               0.300000E-02
      17007               0.300000E-02
      17008               0.300000E-02
      17009               0.300000E-02
      17010               0.300000E-02
      17011               0.300000E-02
      17012               0.300000E-02
      17013               0.300000E-02
      17014               0.300000E-02
      17015               0.300000E-02
      17016               0.300000E-02
      17017               0.300000E-02
      17018               0.300000E-02
      17019               0.300000E-02
      17020               0.300000E-02
      17021               0.300000E-02
      17022               0.300000E-02
      17023               0.300000E-02
      17024               0.300000E-02
      17025               0.300000E-02
      17026               0.300000E-02
      17027               0.300000E-02
      17028               0.300000E-02
      17029               0.300000E-02
      17030               0.300000E-02
      17031               0.300000E-02
      17032               0.300000E-02
      17033               0.300000E-02
      17034               0.300000E-02
      17035               0.300000E-02
      17036               0.300000E-02
      17037               0.300000E-02
      17038               0.300000E-02
      17039               0.300000E-02
      17040               0.300000E-02
      17041               0.300000E-02
      17042               0.300000E-02
      17043               0.300000E-02
      17044               0.300000E-02
      17045               0.300000E-02
      17046               0.300000E-02
      17047               0.300000E-02
      17048               0.300000E-02
      17049               0.300000E-02
      17050               0.300000E-02
      17051               0.300000E-02
      17052               0.300000E-02
      17053               0.300000E-02
      17054               0.300000E-02
      17055               0.300000E-02
      17056               0.300000E-02
      17057               0.300000E-02
      17058               0.300000E-02
      17059               0.300000E-02
      17060               0.300000E-02
      17061               0.300000E-02
      17062               0.300000E-02
      17063               0.300000E-02
      17064               0.300000E-02
      17065               0.300000E-02
      17066               0.300000E-02
      17067               0.300000E-02
      17068               0.300000E-02
      17069               0.300000E-02
      17070               0.300000E-02
      17071               0.300000E-02
      17072               0.300000E-02
      17073               0.300000E-02
      17074               0.300000E-02
      17075               0.300000E-02
      17076               0.300000E-02
      17077               0.300000E-02
      17078               0.300000E-02
      17079               0.300000E-02
      17080               0.300000E-02
      17081               0.300000E-02
      17082               0.300000E-02
      17083               0.300000E-02
      17084               0.300000E-02
      17085               0.300000E-02
      17086               0.300000E-02
      17087               0.300000E-02
      17088               0.300000E-02
      17089               0.300000E-02
      17090               0.300000E-02
      17091               0.300000E-02
      17092               0.300000E-02
      17093               0.300000E-02
      17094               0.300000E-02
      17095               0.300000E-02
      17096               0.300000E-02
      17097               0.300000E-02
      17098               0.300000E-02
      17099               0.300000E-02
      17100               0.300000E-02
      17101               0.300000E-02
      17102               0.300000E-02
      17103               0.300000E-02
      17104               0.300000E-02
      17105               0.300000E-02
      17106               0.300000E-02
      17107               0.300000E-02
      17108               0.300000E-02
      17109               0.300000E-02
      17110               0.300000E-02
      17111               0.300000E-02
      17112               0.300000E-02
      17113               0.300000E-02
      17114               0.300000E-02
      17115               0.300000E-02
      17116               0.300000E-02
      17117               0.300000E-02
      17118               0.300000E-02
      17119               0.300000E-02
      17120               0.300000E-02
      17121               0.300000E-02
      17122               0.300000E-02
      17123               0.300000E-02
      17124               0.300000E-02
      17125               0.300000E-02
      17126               0.300000E-02
      17127               0.300000E-02
      17128               0.300000E-02
      17129               0.300000E-02
      17130               0.300000E-02
      17131               0.300000E-02
      17132               0.300000E-02
      17133               0.300000E-02
      17134               0.300000E-02
      17135               0.300000E-02
      17136               0.300000E-02
      17137               0.300000E-02
      17138               0.300000E-02
      17139               0.300000E-02
      17140               0.300000E-02
      17141               0.300000E-02
      17142               0.300000E-02
      17143               0.300000E-02
      17144               0.300000E-02
      17145               0.300000E-02
      17146               0.300000E-02
      17147               0.300000E-02
      17148               0.300000E-02
      17149               0.300000E-02
      17150               0.300000E-02
      17151               0.300000E-02
      17152               0.300000E-02
      17153               0.300000E-02
      17154               0.300000E-02
      17155               0.300000E-02
      17156               0.300000E-02
      17157               0.300000E-02
      17158               0.300000E-02
      17159               0.300000E-02
      17160               0.300000E-02
      17161               0.300000E-02
      17162               0.300000E-02
      17163               0.300000E-02
      17164               0.300000E-02
      17165               0.300000E-02
      17166               0.300000E-02
      17167               0.447028E-02
      17168               0.300000E-02
      17169               0.589966E-02
      17170               0.564831E-02
      17171               0.300000E-02
      17172               0.300000E-02
      17173               0.300000E-02
      17174               0.300000E-02
      17175               0.300000E-02
      17176               0.300000E-02
      17177               0.300000E-02
      17178               0.300000E-02
      17179               0.300000E-02
      17180               0.300000E-02
      17181               0.300000E-02
      17182               0.300000E-02
      17183               0.300000E-02
      17184               0.300000E-02
      17185               0.300000E-02
      17186               0.300000E-02
      17187               0.300000E-02
      17188               0.300000E-02
      17189               0.300000E-02
      17190               0.300000E-02
      17191               0.300000E-02
      17192               0.300000E-02
      17193               0.300000E-02
      17194               0.300000E-02
      17195               0.300000E-02
      17196               0.300000E-02
      17197               0.300000E-02
      17198               0.300000E-02
      17199               0.300000E-02
      17200               0.300000E-02
      17201               0.300000E-02
      17202               0.300000E-02
      17203               0.300000E-02
      17204               0.300000E-02
      17205               0.300000E-02
      17206               0.300000E-02
      17207               0.300000E-02
      17208               0.300000E-02
      17209               0.300000E-02
      17210               0.300000E-02
      17211               0.300000E-02
      17212               0.300000E-02
      17213               0.300000E-02
      17214               0.300000E-02
      17215               0.300000E-02
      17216               0.300000E-02
      17217               0.300000E-02
      17218               0.300000E-02
      17219               0.300000E-02
      17220               0.300000E-02
      17221               0.300000E-02
      17222               0.300000E-02
      17223               0.300000E-02
      17224               0.300000E-02
      17225               0.300000E-02
      17226               0.300000E-02
      17227               0.300000E-02
      17228               0.300000E-02
      17229               0.300000E-02
      17230               0.300000E-02
      17231               0.300000E-02
      17232               0.300000E-02
      17233               0.300000E-02
      17234               0.300000E-02
      17235               0.300000E-02
      17236               0.300000E-02
      17237               0.300000E-02
      17238               0.300000E-02
      17239               0.300000E-02
      17240               0.300000E-02
      17241               0.300000E-02
      17242               0.300000E-02
      17243               0.300000E-02
      17244               0.300000E-02
      17245               0.300000E-02
      17246               0.300000E-02
      17247               0.300000E-02
      17248               0.300000E-02
      17249               0.300000E-02
      17250               0.300000E-02
      17251               0.300000E-02
      17252               0.300000E-02
      17253               0.300000E-02
      17254               0.300000E-02
      17255               0.300000E-02
      17256               0.300000E-02
      17257               0.300000E-02
      17258               0.300000E-02
      17259               0.300000E-02
      17260               0.300000E-02
      17261               0.300000E-02
      17262               0.300000E-02
      17263               0.300000E-02
      17264               0.300000E-02
      17265               0.300000E-02
      17266               0.300000E-02
      17267               0.300000E-02
      17268               0.300000E-02
      17269               0.300000E-02
      17270               0.300000E-02
      17271               0.300000E-02
      17272               0.300000E-02
      17273               0.300000E-02
      17274               0.300000E-02
      17275               0.300000E-02
      17276               0.300000E-02
      17277               0.300000E-02
      17278               0.300000E-02
      17279               0.300000E-02
      17280               0.300000E-02
      17281               0.300000E-02
      17282               0.150408E-01
      17283               0.300000E-02
      17284               0.300000E-02
      17285               0.300000E-02
      17286               0.300000E-02
      17287               0.300000E-02
      17288               0.300000E-02
      17289               0.300000E-02
      17290               0.300000E-02
      17291               0.300000E-02
      17292               0.300000E-02
      17293               0.300000E-02
      17294               0.300000E-02
      17295               0.300000E-02
      17296               0.300000E-02
      17297               0.300000E-02
      17298               0.300000E-02
      17299               0.300000E-02
      17300               0.300000E-02
      17301               0.300000E-02
      17302               0.300000E-02
      17303               0.300000E-02
      17304               0.300000E-02
      17305               0.300000E-02
      17306               0.300000E-02
      17307               0.300000E-02
      17308               0.300000E-02
      17309               0.300000E-02
      17310               0.300000E-02
      17311               0.300000E-02
      17312               0.300000E-02
      17313               0.300000E-02
      17314               0.300000E-02
      17315               0.300000E-02
      17316               0.300000E-02
      17317               0.300000E-02
      17318               0.300000E-02
      17319               0.300000E-02
      17320               0.300000E-02
      17321               0.300000E-02
      17322               0.300000E-02
      17323               0.300000E-02
      17324               0.300000E-02
      17325               0.300000E-02
      17326               0.300000E-02
      17327               0.300000E-02
      17328               0.300000E-02
      17329               0.300000E-02
      17330               0.300000E-02
      17331               0.300000E-02
      17332               0.300000E-02
      17333               0.300000E-02
      17334               0.300000E-02
      17335               0.300000E-02
      17336               0.300000E-02
      17337               0.300000E-02
      17338               0.300000E-02
      17339               0.300000E-02
      17340               0.300000E-02
      17341               0.300000E-02
      17342               0.300000E-02
      17343               0.300000E-02
      17344               0.300000E-02
      17345               0.300000E-02
      17346               0.300000E-02
      17347               0.300000E-02
      17348               0.300000E-02
      17349               0.300000E-02
      17350               0.300000E-02
      17351               0.300000E-02
      17352               0.300000E-02
      17353               0.300000E-02
      17354               0.300000E-02
      17355               0.300000E-02
      17356               0.300000E-02
      17357               0.300000E-02
      17358               0.300000E-02
      17359               0.300000E-02
      17360               0.300000E-02
      17361               0.300000E-02
      17362               0.300000E-02
      17363               0.300000E-02
      17364               0.300000E-02
      17365               0.300000E-02
      17366               0.300000E-02
      17367               0.300000E-02
      17368               0.300000E-02
      17369               0.300000E-02
      17370               0.300000E-02
      17371               0.300000E-02
      17372               0.300000E-02
      17373               0.300000E-02
      17374               0.300000E-02
      17375               0.300000E-02
      17376               0.300000E-02
      17377               0.300000E-02
      17378               0.300000E-02
      17379               0.300000E-02
      17380               0.300000E-02
      17381               0.300000E-02
      17382               0.300000E-02
      17383               0.300000E-02
      17384               0.300000E-02
      17385               0.300000E-02
      17386               0.300000E-02
      17387               0.300000E-02
      17388               0.300000E-02
      17389               0.300000E-02
      17390               0.300000E-02
      17391               0.300000E-02
      17392               0.300000E-02
      17393               0.300000E-02
      17394               0.300000E-02
      17395               0.300000E-02
      17396               0.300000E-02
      17397               0.300000E-02
      17398               0.300000E-02
      17399               0.300000E-02
      17400               0.300000E-02
      17401               0.300000E-02
      17402               0.300000E-02
      17403               0.300000E-02
      17404               0.300000E-02
      17405               0.300000E-02
      17406               0.300000E-02
      17407               0.300000E-02
      17408               0.300000E-02
      17409               0.300000E-02
      17410               0.300000E-02
      17411               0.300000E-02
      17412               0.300000E-02
      17413               0.300000E-02
      17414               0.300000E-02
      17415               0.300000E-02
      17416               0.300000E-02
      17417               0.300000E-02
      17418               0.300000E-02
      17419               0.300000E-02
      17420               0.300000E-02
      17421               0.300000E-02
      17422               0.138303E-01
      17423               0.300000E-02
      17424               0.300000E-02
      17425               0.300000E-02
      17426               0.300000E-02
      17427               0.300000E-02
      17428               0.300000E-02
      17429               0.300000E-02
      17430               0.300000E-02
      17431               0.300000E-02
      17432               0.300000E-02
      17433               0.300000E-02
      17434               0.300000E-02
      17435               0.300000E-02
      17436               0.300000E-02
      17437               0.300000E-02
      17438               0.300000E-02
      17439               0.300000E-02
      17440               0.300000E-02
      17441               0.300000E-02
      17442               0.300000E-02
      17443               0.300000E-02
      17444               0.300000E-02
      17445               0.300000E-02
      17446               0.300000E-02
      17447               0.300000E-02
      17448               0.300000E-02
      17449               0.300000E-02
      17450               0.300000E-02
      17451               0.300000E-02
      17452               0.300000E-02
      17453               0.300000E-02
      17454               0.300000E-02
      17455               0.300000E-02
      17456               0.300000E-02
      17457               0.300000E-02
      17458               0.300000E-02
      17459               0.300000E-02
      17460               0.300000E-02
      17461               0.300000E-02
      17462               0.300000E-02
      17463               0.300000E-02
      17464               0.300000E-02
      17465               0.300000E-02
      17466               0.300000E-02
      17467               0.300000E-02
      17468               0.300000E-02
      17469               0.300000E-02
      17470               0.300000E-02
      17471               0.300000E-02
      17472               0.300000E-02
      17473               0.300000E-02
      17474               0.300000E-02
      17475               0.300000E-02
      17476               0.300000E-02
      17477               0.300000E-02
      17478               0.300000E-02
      17479               0.300000E-02
      17480               0.300000E-02
      17481               0.300000E-02
      17482               0.300000E-02
      17483               0.300000E-02
      17484               0.300000E-02
      17485               0.300000E-02
      17486               0.300000E-02
      17487               0.300000E-02
      17488               0.300000E-02
      17489               0.300000E-02
      17490               0.300000E-02
      17491               0.300000E-02
      17492               0.300000E-02
      17493               0.300000E-02
      17494               0.300000E-02
      17495               0.300000E-02
      17496               0.953835E-02
      17497               0.300000E-02
      17498               0.300000E-02
      17499               0.300000E-02
      17500               0.300000E-02
      17501               0.300000E-02
      17502               0.300000E-02
      17503               0.300000E-02
      17504               0.300000E-02
      17505               0.300000E-02
      17506               0.300000E-02
      17507               0.300000E-02
      17508               0.300000E-02
      17509               0.300000E-02
      17510               0.300000E-02
      17511               0.300000E-02
      17512               0.300000E-02
      17513               0.300000E-02
      17514               0.300000E-02
      17515               0.300000E-02
      17516               0.300000E-02
      17517               0.300000E-02
      17518               0.300000E-02
      17519               0.300000E-02
      17520               0.300000E-02
      17521               0.300000E-02
      17522               0.300000E-02
      17523               0.300000E-02
      17524               0.300000E-02
      17525               0.514484E-02
      17526               0.300000E-02
      17527               0.300000E-02
      17528               0.300000E-02
      17529               0.719498E-01
      17530               0.300000E-02
      17531               0.635692E-02
      17532               0.300000E-02
      17533               0.300000E-02
      17534               0.300000E-02
      17535               0.300000E-02
      17536               0.300000E-02
      17537               0.300000E-02
      17538               0.300000E-02
      17539               0.300000E-02
      17540               0.300000E-02
      17541               0.300000E-02
      17542               0.300000E-02
      17543               0.300000E-02
      17544               0.300000E-02
      17545               0.300000E-02
      17546               0.300000E-02
      17547               0.300000E-02
      17548               0.300000E-02
      17549               0.300000E-02
      17550               0.300000E-02
      17551               0.300000E-02
      17552               0.300000E-02
      17553               0.300000E-02
      17554               0.300000E-02
      17555               0.300000E-02
      17556               0.300000E-02
      17557               0.300000E-02
      17558               0.300000E-02
      17559               0.300000E-02
      17560               0.300000E-02
      17561               0.300000E-02
      17562               0.300000E-02
      17563               0.300000E-02
      17564               0.300000E-02
 MAXIMUM MEMORY USED IN MEGABYTES . . . . . . (MAXMB)  =           0



T O T A L   S O L U T I O N   T I M E . . . . . .=     0 Seconds
